#  HZ   S   RI   R     50.00 
! Rohde & Schwarz Vector Network Analyzer 
! Rohde-Schwarz,ZNA43-4Port,1332450044101932,2.92
! Created: UTC 6/1/2026, 11:34:23 AM
! freq[Hz]                re:S11                  im:S11
 8.000000000000000E9     7.316054588001988E-1    6.451814936298674E-1
 8.010000000000000E9     7.923463060095242E-1    5.688273954844092E-1
 8.020000000000000E9     8.466846080460515E-1    4.825492853950728E-1
 8.030000000000000E9     8.933358029349557E-1    3.859025782510324E-1
 8.040000000000000E9     9.303377150564953E-1    2.786276289745702E-1
 8.050000000000000E9     9.557914660183263E-1    1.614026030033598E-1
 8.060000000000000E9     9.671890452673414E-1    3.548370467322542E-2
 8.070000000000000E9     9.619535408643655E-1   -9.763594591296675E-2
 8.080000000000000E9     9.372374803395525E-1   -2.355921181643287E-1
 8.090000000000000E9     8.901921601844069E-1   -3.752340147415789E-1
 8.100000000000000E9     8.173338901713563E-1   -5.129257655726236E-1
 8.110000000000000E9     7.161865703908078E-1   -6.434853564288514E-1
 8.120000000000000E9     5.858286375676597E-1   -7.604731423264881E-1
 8.130000000000000E9     4.267044069765434E-1   -8.557635061915068E-1
 8.140000000000000E9     2.426730436466914E-1   -9.213371168393076E-1
 8.150000000000000E9     4.075777078404631E-2   -9.493206755279590E-1
 8.160000000000000E9    -1.688118561510556E-1   -9.339713990792992E-1
 8.170000000000000E9    -3.737332490163433E-1   -8.725862681995280E-1
 8.180000000000000E9    -5.611366917796016E-1   -7.668150797297445E-1
 8.190000000000000E9    -7.191692284981674E-1   -6.219943995195126E-1
 8.200000000000000E9    -8.392247633020884E-1   -4.473677953252888E-1
 8.210000000000000E9    -9.158848845159742E-1   -2.540656730052472E-1
 8.220000000000000E9    -9.486003578713116E-1   -5.433969936780153E-2
 8.230000000000000E9    -9.400746552249981E-1    1.408198625910186E-1
 8.240000000000000E9    -8.960549488740917E-1    3.224898380796702E-1
 8.250000000000000E9    -8.234109098077824E-1    4.840306357392660E-1
 8.260000000000000E9    -7.292348151337501E-1    6.221472184720059E-1
 8.270000000000000E9    -6.197132020210567E-1    7.354509708937450E-1
 8.280000000000000E9    -5.002978636720277E-1    8.242752532711498E-1
 8.290000000000000E9    -3.747801496828113E-1    8.900936776459991E-1
 8.300000000000000E9    -2.459002747036091E-1    9.341860306629320E-1
 8.310000000000000E9    -1.166944100719875E-1    9.585044657135520E-1
 8.320000000000000E9     1.055414500677124E-2    9.650261615643152E-1
 8.330000000000000E9     1.336033526391261E-1    9.559636738078064E-1
 8.340000000000000E9     2.506962121216705E-1    9.330964687117614E-1
 8.350000000000000E9     3.603228000267536E-1    8.982459846338756E-1
 8.360000000000000E9     4.617248660722394E-1    8.531954548683521E-1
 8.370000000000000E9     5.544279608249656E-1    7.987238681586769E-1
 8.380000000000000E9     6.378165375751522E-1    7.356846387306442E-1
 8.390000000000000E9     7.120899907394108E-1    6.646644669747034E-1
 8.400000000000000E9     7.773280476838913E-1    5.861371054309757E-1
 8.410000000000000E9     8.335356692985709E-1    5.009582398048130E-1
 8.420000000000000E9     8.805008297012307E-1    4.098910044086579E-1
 8.430000000000000E9     9.182121301030244E-1    3.139883621125720E-1
 8.440000000000000E9     9.463122645911838E-1    2.147780039749973E-1
 8.450000000000000E9     9.645306426939286E-1    1.137424932833710E-1
 8.460000000000000E9     9.721225060965965E-1    1.206072345573427E-2
 8.470000000000000E9     9.692078773710399E-1   -8.941312592555753E-2
 8.480000000000000E9     9.552557321695705E-1   -1.897846931100091E-1
 8.490000000000000E9     9.300499857913558E-1   -2.885735034888733E-1
 8.500000000000000E9     8.934746482566193E-1   -3.855357949189028E-1
 8.510000000000000E9     8.443258523883993E-1   -4.796611418817977E-1
 8.520000000000000E9     7.831898096160719E-1   -5.704704609286022E-1
 8.530000000000000E9     7.104275226722098E-1   -6.557169246946453E-1
 8.540000000000000E9     6.264103209296794E-1   -7.339476151018564E-1
 8.550000000000000E9     5.309835719803049E-1   -8.019285097110078E-1
 8.560000000000000E9     4.261450062591958E-1   -8.503539560125692E-1
 8.570000000000000E9     3.388621255081254E-1   -8.832112225119401E-1
 8.580000000000000E9     2.390029139004075E-1   -9.299692351132993E-1
 8.590000000000000E9     1.230490640348549E-1   -9.571036275574354E-1
 8.600000000000000E9     2.848588894803614E-3   -9.654270265807589E-1
 8.610000000000000E9    -1.191178540364292E-1   -9.568547284661817E-1
 8.620000000000000E9    -2.408642477821647E-1   -9.318315689892206E-1
 8.630000000000000E9    -3.602658714292996E-1   -8.907883149873554E-1
 8.640000000000000E9    -4.749501647745276E-1   -8.348171770183288E-1
 8.650000000000000E9    -5.820370100007212E-1   -7.646762859101256E-1
 8.660000000000000E9    -6.792643236170360E-1   -6.815867515364306E-1
 8.670000000000000E9    -7.643044757867831E-1   -5.870519619609023E-1
 8.680000000000000E9    -8.353202072252063E-1   -4.825548923385097E-1
 8.690000000000000E9    -8.910794588356327E-1   -3.697738536445953E-1
 8.700000000000000E9    -9.309083611963784E-1   -2.500770684495413E-1
 8.710000000000000E9    -9.541486602248386E-1   -1.255568538725158E-1
 8.720000000000000E9    -9.607789237534539E-1    1.769618688374342E-3
 8.730000000000000E9    -9.510348212124656E-1    1.290827441154062E-1
 8.740000000000000E9    -9.255483688477987E-1    2.536599547246778E-1
 8.750000000000000E9    -8.851865156259501E-1    3.729756786175857E-1
 8.760000000000000E9    -8.312131038567712E-1    4.846402896270249E-1
 8.770000000000000E9    -7.648111064789435E-1    5.867679043801552E-1
 8.780000000000000E9    -6.869020597214069E-1    6.782544866050674E-1
 8.790000000000000E9    -5.985651191388385E-1    7.579483292639309E-1
 8.800000000000000E9    -5.011703327737014E-1    8.251841075563516E-1
 8.810000000000000E9    -3.957927275783752E-1    8.793950726370034E-1
 8.820000000000000E9    -2.842045514409269E-1    9.203330153106476E-1
 8.830000000000000E9    -1.681924246751422E-1    9.478213418329130E-1
 8.840000000000000E9    -4.971311351222152E-2    9.613807870061479E-1
 8.850000000000000E9     6.904754057393973E-2    9.611074623347130E-1
 8.860000000000000E9     1.858849531617368E-1    9.465840908738997E-1
 8.870000000000000E9     2.992437586291392E-1    9.184071661055530E-1
 8.880000000000000E9     4.073144576144921E-1    8.766435214494968E-1
 8.890000000000000E9     5.092851465172384E-1    8.211358918257452E-1
 8.900000000000000E9     6.042235939928530E-1    7.528177705466630E-1
 8.910000000000000E9     6.907223063755408E-1    6.720518171392966E-1
 8.920000000000000E9     7.679102056049357E-1    5.793616882752345E-1
 8.930000000000000E9     8.345860217911381E-1    4.759752419098067E-1
 8.940000000000000E9     8.888261638782342E-1    3.634993364320895E-1
 8.950000000000000E9     9.288581524400157E-1    2.439721369861712E-1
 8.960000000000000E9     9.536502061705359E-1    1.194456580899712E-1
 8.970000000000000E9     9.614152937178607E-1   -7.926733266765544E-3
 8.980000000000000E9     9.514240095384724E-1   -1.362096260243632E-1
 8.990000000000000E9     9.232285220349731E-1   -2.633058746216186E-1
 9.000000000000000E9     8.762194430185701E-1   -3.872561650714343E-1
 9.010000000000000E9     8.105541094005124E-1   -5.057331462663698E-1
 9.020000000000000E9     7.268511199525264E-1   -6.161951403318395E-1
 9.030000000000000E9     6.263186137696292E-1   -7.157076532973451E-1
 9.040000000000000E9     5.110150289389794E-1   -8.008945060538802E-1
 9.050000000000000E9     3.836401794478130E-1   -8.690255275490361E-1
 9.060000000000000E9     2.476380723999491E-1   -9.175052566307267E-1
 9.070000000000000E9     1.062159570524326E-1   -9.447785103606767E-1
 9.080000000000000E9    -3.687472625911981E-2   -9.496024201249595E-1
 9.090000000000000E9    -1.783010478708665E-1   -9.322945806826921E-1
 9.100000000000000E9    -3.151535293326824E-1   -8.938121793333449E-1
 9.110000000000000E9    -4.445134919039849E-1   -8.351115301981991E-1
 9.120000000000000E9    -5.634760638871154E-1   -7.583174285317574E-1
 9.130000000000000E9    -6.695744625048488E-1   -6.658959685003392E-1
 9.140000000000000E9    -7.603400952770217E-1   -5.608158660289803E-1
 9.150000000000000E9    -8.341272731618988E-1   -4.464110799620617E-1
 9.160000000000000E9    -8.896321055711242E-1   -3.262676780333746E-1
 9.170000000000000E9    -9.268180224128364E-1   -2.035773264701496E-1
 9.180000000000000E9    -9.461892004033565E-1   -8.079195248285105E-2
 9.190000000000000E9    -9.490383863927221E-1    3.944631930771243E-2
 9.200000000000000E9    -9.370312316346526E-1    1.556762060293812E-1
 9.210000000000000E9    -9.119063337261821E-1    2.670524179847295E-1
 9.220000000000000E9    -8.747291936096491E-1    3.726618615583415E-1
 9.230000000000000E9    -8.271797815346954E-1    4.708856768061911E-1
 9.240000000000000E9    -7.705403935977183E-1    5.616454656450892E-1
 9.250000000000000E9    -7.060553729016567E-1    6.437456955669671E-1
 9.260000000000000E9    -6.354681246959575E-1    7.160383623848610E-1
 9.270000000000000E9    -5.600639295464008E-1    7.784466581138275E-1
 9.280000000000000E9    -4.810436778322293E-1    8.308255787718695E-1
 9.290000000000000E9    -3.995526951709214E-1    8.735536332606646E-1
 9.300000000000000E9    -3.164334802873836E-1    9.071345870343483E-1
 9.310000000000000E9    -2.322468517968688E-1    9.324460969975237E-1
 9.320000000000000E9    -1.476141250271230E-1    9.499359075322656E-1
 9.330000000000000E9    -6.283664040709327E-2    9.600952681161882E-1
 9.340000000000000E9     2.154791863167603E-2    9.631862609286617E-1
 9.350000000000000E9     1.048926572125672E-1    9.593633159035048E-1
 9.360000000000000E9     1.867477615811213E-1    9.485679700751292E-1
 9.370000000000000E9     2.661830754094145E-1    9.309898278597395E-1
 9.380000000000000E9     3.426369893444817E-1    9.068865373840929E-1
 9.390000000000000E9     4.155924215483405E-1    8.764920562821952E-1
 9.400000000000000E9     4.849187427255819E-1    8.404961215498225E-1
 9.410000000000000E9     5.503590886924983E-1    7.990689698959310E-1
 9.420000000000000E9     6.121268766368962E-1    7.529352513405908E-1
 9.430000000000000E9     6.702997597896195E-1    7.020939563420792E-1
 9.440000000000000E9     7.248394994573225E-1    6.465003516109833E-1
 9.450000000000000E9     7.752618579929114E-1    5.861650011163483E-1
 9.460000000000000E9     8.212569128837088E-1    5.211170343588765E-1
 9.470000000000000E9     8.624216461410344E-1    4.512556252722985E-1
 9.480000000000000E9     8.977377000778756E-1    3.771635723492130E-1
 9.490000000000000E9     9.265703930865250E-1    2.989974944208911E-1
 9.500000000000000E9     9.489682764158148E-1    2.176118524045945E-1
 9.510000000000000E9     9.639677503252062E-1    1.331810216728083E-1
 9.520000000000000E9     9.713418493695036E-1    4.602325417088262E-2
 9.530000000000000E9     9.712703340095677E-1   -4.309396498561017E-2
 9.540000000000000E9     9.629648797394333E-1   -1.339592644464489E-1
 9.550000000000000E9     9.456708216041165E-1   -2.263189935584957E-1
 9.560000000000000E9     9.183808026849577E-1   -3.195348023901255E-1
 9.570000000000000E9     8.799375620914591E-1   -4.128661862950506E-1
 9.580000000000000E9     8.294962555153399E-1   -5.051740128557067E-1
 9.590000000000000E9     7.660816785522602E-1   -5.945047096642885E-1
 9.600000000000000E9     6.891840860495451E-1   -6.793132555324697E-1
 9.610000000000000E9     5.988496934849797E-1   -7.573955273292095E-1
 9.620000000000000E9     4.953069201978192E-1   -8.260454035804594E-1
 9.630000000000000E9     3.791116594841202E-1   -8.831257537126946E-1
 9.640000000000000E9     2.516485803949577E-1   -9.256108612806021E-1
 9.650000000000000E9     1.139221061118778E-1   -9.506812596473845E-1
 9.660000000000000E9    -3.207517829661966E-2   -9.545636368717337E-1
 9.670000000000000E9    -1.823344437771734E-1   -9.344348183928692E-1
 9.680000000000000E9    -3.325035809442560E-1   -8.877249394124850E-1
 9.690000000000000E9    -4.768395181974190E-1   -8.137573720913595E-1
 9.700000000000000E9    -6.093563619283653E-1   -7.130324992124499E-1
 9.710000000000000E9    -7.238986885340309E-1   -5.885045765016547E-1
 9.720000000000000E9    -8.151789074606293E-1   -4.446850691378345E-1
 9.730000000000000E9    -8.792361409953603E-1   -2.870683421118297E-1
 9.740000000000000E9    -9.140066029426588E-1   -1.218757540895923E-1
 9.750000000000000E9    -9.185797779468264E-1    4.433789950503755E-2
 9.760000000000000E9    -8.940446186952251E-1    2.055811949242063E-1
 9.770000000000000E9    -8.428934162539119E-1    3.564522693870062E-1
 9.780000000000000E9    -7.686324903727039E-1    4.918978077234125E-1
 9.790000000000000E9    -6.765001038437017E-1    6.092534764518384E-1
 9.800000000000000E9    -5.716939800108707E-1    7.065000540084380E-1
 9.810000000000000E9    -4.591365340472421E-1    7.834156641752242E-1
 9.820000000000000E9    -3.434110790683010E-1    8.406580780532112E-1
 9.830000000000000E9    -2.271258536771224E-1    8.798884806764300E-1
 9.840000000000000E9    -1.128527513544158E-1    9.024932869784433E-1
 9.850000000000000E9    -2.045546059028441E-3    9.101357717028692E-1
 9.860000000000000E9     1.041359047925437E-1    9.039786496419951E-1
 9.870000000000000E9     2.048564961007283E-1    8.858880288311127E-1
 9.880000000000000E9     2.994530642757349E-1    8.575795016261670E-1
 9.890000000000000E9     3.871116744927585E-1    8.207580366917073E-1
 9.900000000000000E9     4.674163935765658E-1    7.772317962038700E-1
 9.910000000000000E9     5.403840696105203E-1    7.285911183607054E-1
 9.920000000000000E9     6.058997505340490E-1    6.761737123011621E-1
 9.930000000000000E9     6.639865251438712E-1    6.209295101456926E-1
 9.940000000000000E9     7.152061862512864E-1    5.631755428953741E-1
 9.950000000000000E9     7.595822171710693E-1    5.032662262926596E-1
 9.960000000000000E9     7.974218873729639E-1    4.412954035111475E-1
 9.970000000000000E9     8.291395323753185E-1    3.771688857764328E-1
 9.980000000000000E9     8.551756548154443E-1    3.112313451561073E-1
 9.990000000000000E9     8.755546787084409E-1    2.438743396736059E-1
 1.000000000000000E+10   8.910850687756523E-1    1.759358746574407E-1
 1.001000000000000E+10   9.016271449315980E-1    1.079074907316029E-1
 1.002000000000000E+10   9.077686564578562E-1    4.058494816794819E-2
 1.003000000000000E+10   9.096942114779163E-1   -2.549795894036241E-2
 1.004000000000000E+10   9.074080520343077E-1   -9.011878219692200E-2
 1.005000000000000E+10   9.007683739295500E-1   -1.534086971678157E-1
 1.006000000000000E+10   8.895584534787354E-1   -2.156109306285170E-1
 1.007000000000000E+10   8.734698343270872E-1   -2.769390428572343E-1
 1.008000000000000E+10   8.520107839916885E-1   -3.377377542657864E-1
 1.009000000000000E+10   8.253581889188211E-1   -3.982008749448260E-1
 1.010000000000000E+10   7.933813972428596E-1   -4.579131515864039E-1
 1.011000000000000E+10   7.563784203577746E-1   -5.166563381270958E-1
 1.012000000000000E+10   7.151383506703116E-1   -5.735771040310734E-1
 1.013000000000000E+10   6.698223100624053E-1   -6.281177637784956E-1
 1.014000000000000E+10   6.208456506824723E-1   -6.795931042541699E-1
 1.015000000000000E+10   5.683774386198681E-1   -7.274118883210507E-1
 1.016000000000000E+10   5.119007958003430E-1   -7.712124747312560E-1
 1.017000000000000E+10   4.508190571229694E-1   -8.107146972133559E-1
 1.018000000000000E+10   3.847588175694548E-1   -8.451324227355205E-1
 1.019000000000000E+10   3.131303175197173E-1   -8.743606326774098E-1
 1.020000000000000E+10   2.356662197540264E-1   -8.979217337492390E-1
 1.021000000000000E+10   1.526145341427140E-1   -9.152353203217354E-1
 1.022000000000000E+10   6.461518659756361E-2   -9.253985255942794E-1
 1.023000000000000E+10  -2.692313295747601E-2   -9.278263849252799E-1
 1.024000000000000E+10  -1.207185325142987E-1   -9.218401141125854E-1
 1.025000000000000E+10  -2.150976557554397E-1   -9.065146987380351E-1
 1.026000000000000E+10  -3.090989647372299E-1   -8.812575621526362E-1
 1.027000000000000E+10  -4.014496660677952E-1   -8.451237256976295E-1
 1.028000000000000E+10  -4.916749581437293E-1   -7.971215223631662E-1
 1.029000000000000E+10  -5.786993752498818E-1   -7.359867042837609E-1
 1.030000000000000E+10  -6.615413859856797E-1   -6.611544613736540E-1
 1.031000000000000E+10  -7.383334820934155E-1   -5.722343178907267E-1
 1.032000000000000E+10  -8.065616215515494E-1   -4.695325317965991E-1
 1.033000000000000E+10  -8.635214602310873E-1   -3.548399473151305E-1
 1.034000000000000E+10  -9.064693084551472E-1   -2.300993688138391E-1
 1.035000000000000E+10  -9.327277836888718E-1   -9.775252548466601E-2
 1.036000000000000E+10  -9.401073047541975E-1    3.862575222032116E-2
 1.037000000000000E+10  -9.269856934114525E-1    1.763262515511662E-1
 1.038000000000000E+10  -8.923448284055866E-1    3.121748229301088E-1
 1.039000000000000E+10  -8.356393822281156E-1    4.430685052654542E-1
 1.040000000000000E+10  -7.578657652197561E-1    5.657355587264145E-1
 1.041000000000000E+10  -6.603460776009554E-1    6.769139142502518E-1
 1.042000000000000E+10  -5.457642691332196E-1    7.733003495887935E-1
 1.043000000000000E+10  -4.176579344989525E-1    8.514997612905817E-1
 1.044000000000000E+10  -2.805169787177227E-1    9.092751873976858E-1
 1.045000000000000E+10  -1.393442818289699E-1    9.451786993107539E-1
 1.046000000000000E+10   2.155744743334236E-3    9.591033273853982E-1
 1.047000000000000E+10   1.399856378162130E-1    9.518759737224533E-1
 1.048000000000000E+10   2.718377398657654E-1    9.250030150966803E-1
 1.049000000000000E+10   3.960055468165965E-1    8.798160448056285E-1
 1.050000000000000E+10   5.106989556180155E-1    8.188903030100624E-1
 1.051000000000000E+10   6.144619926588436E-1    7.445157540825690E-1
 1.052000000000000E+10   7.062480858567386E-1    6.590978515244192E-1
 1.053000000000000E+10   7.850408952840067E-1    5.656802809663999E-1
 1.054000000000000E+10   8.499714471244014E-1    4.671029900645237E-1
 1.055000000000000E+10   9.008927666427630E-1    3.655741785788159E-1
 1.056000000000000E+10   9.381932103149074E-1    2.632659853110995E-1
 1.057000000000000E+10   9.620978604888546E-1    1.607386639441713E-1
 1.058000000000000E+10   9.734798415663619E-1    5.938807747539738E-2
 1.059000000000000E+10   9.737952958087029E-1   -4.053238796255646E-2
 1.060000000000000E+10   9.633167462641381E-1   -1.387859166718351E-1
 1.061000000000000E+10   9.432591044387257E-1   -2.348250027623667E-1
 1.062000000000000E+10   9.145444384880707E-1   -3.279293354708854E-1
 1.063000000000000E+10   8.782168416159756E-1   -4.165719604639193E-1
 1.064000000000000E+10   8.351656874627517E-1   -5.002589786064092E-1
 1.065000000000000E+10   7.858137664096054E-1   -5.772797618755883E-1
 1.066000000000000E+10   7.311315769207227E-1   -6.474028525612779E-1
 1.067000000000000E+10   6.717630460988239E-1   -7.096906020550603E-1
 1.068000000000000E+10   6.076597415869692E-1   -7.647840577221697E-1
 1.069000000000000E+10   5.390535662218000E-1   -8.128108279123281E-1
 1.070000000000000E+10   4.659019553792657E-1   -8.542722416941704E-1
 1.071000000000000E+10   3.879990921141718E-1   -8.894884741211647E-1
 1.072000000000000E+10   3.065328860819071E-1   -9.184659000154042E-1
 1.073000000000000E+10   2.219311286563892E-1   -9.409923609514517E-1
 1.074000000000000E+10   1.358001790352118E-1   -9.569297132606485E-1
 1.075000000000000E+10   4.920311300434534E-2   -9.656628124584584E-1
 1.076000000000000E+10  -3.685841753164344E-2   -9.670353289315564E-1
 1.077000000000000E+10  -1.213547944239314E-1   -9.604916627639959E-1
 1.078000000000000E+10  -2.037373855173049E-1   -9.463406213814780E-1
 1.079000000000000E+10  -2.837917560368358E-1   -9.240053947625905E-1
 1.080000000000000E+10  -3.618777808844076E-1   -8.938441282528384E-1
 1.081000000000000E+10  -4.381256208968421E-1   -8.555974326001901E-1
 1.082000000000000E+10  -5.122762650066962E-1   -8.097053541816669E-1
 1.083000000000000E+10  -5.840054786765958E-1   -7.561677780146943E-1
 1.084000000000000E+10  -6.523024807150304E-1   -6.955031552187069E-1
 1.085000000000000E+10  -7.160677404233451E-1   -6.285356530427673E-1
 1.086000000000000E+10  -7.737336644132043E-1   -5.556554958849109E-1
 1.087000000000000E+10  -8.239950177431926E-1   -4.779814059813809E-1
 1.088000000000000E+10  -8.662311461111992E-1   -3.959824878551609E-1
 1.089000000000000E+10  -8.993369728998828E-1   -3.101602567846827E-1
 1.090000000000000E+10  -9.233991165830893E-1   -2.208719139909245E-1
 1.091000000000000E+10  -9.380284922593147E-1   -1.284721416773597E-1
 1.092000000000000E+10  -9.434839060475771E-1   -3.299421284614788E-2
 1.093000000000000E+10  -9.390195386107064E-1    6.515241035939276E-2
 1.094000000000000E+10  -9.248386644773012E-1    1.645758141792905E-1
 1.095000000000000E+10  -9.002742198656593E-1    2.639746180469071E-1
 1.096000000000000E+10  -8.654511918776194E-1    3.614681077002877E-1
 1.097000000000000E+10  -8.201485194855712E-1    4.548447023670844E-1
 1.098000000000000E+10  -7.649873869109509E-1    5.424669886016982E-1
 1.099000000000000E+10  -7.006408586996807E-1    6.229167762451182E-1
 1.100000000000000E+10  -6.274950549991254E-1    6.951455587036063E-1
 1.101000000000000E+10  -5.463712103156146E-1    7.588129899119036E-1
 1.102000000000000E+10  -4.575751409604373E-1    8.137308105921555E-1
 1.103000000000000E+10  -3.617991657671308E-1    8.593436519281399E-1
 1.104000000000000E+10  -2.601717359578482E-1    8.948235414997744E-1
 1.105000000000000E+10  -1.539842564521198E-1    9.194804842270674E-1
 1.106000000000000E+10  -4.517454398032993E-2    9.323273076558504E-1
 1.107000000000000E+10   6.434514176939202E-2    9.326134219775265E-1
 1.108000000000000E+10   1.727133138771104E-1    9.203552662318853E-1
 1.109000000000000E+10   2.776020845899376E-1    8.956470874334647E-1
 1.110000000000000E+10   3.779867756575641E-1    8.587886802449054E-1
 1.111000000000000E+10   4.724524786863895E-1    8.107589544774646E-1
 1.112000000000000E+10   5.607780390824019E-1    7.525908445009458E-1
 1.113000000000000E+10   6.422111137163776E-1    6.851719112147781E-1
 1.114000000000000E+10   7.162803381261297E-1    6.090873311151856E-1
 1.115000000000000E+10   7.819778500893032E-1    5.253453875840213E-1
 1.116000000000000E+10   8.385006183999213E-1    4.349560646334611E-1
 1.117000000000000E+10   8.846214637390043E-1    3.390438195671369E-1
 1.118000000000000E+10   9.191585143550411E-1    2.394908244307565E-1
 1.119000000000000E+10   9.416493449264600E-1    1.377315905071762E-1
 1.120000000000000E+10   9.526488494199442E-1    3.515610264147277E-2
 1.121000000000000E+10   9.519021781956312E-1   -6.722481719222721E-2
 1.122000000000000E+10   9.401006717931034E-1   -1.684095803936208E-1
 1.123000000000000E+10   9.176138912153967E-1   -2.677853893629584E-1
 1.124000000000000E+10   8.849804306338707E-1   -3.647951085321708E-1
 1.125000000000000E+10   8.425076012258523E-1   -4.580352561856279E-1
 1.126000000000000E+10   7.905314569847928E-1   -5.466078265191232E-1
 1.127000000000000E+10   7.294731564856621E-1   -6.292290813543340E-1
 1.128000000000000E+10   6.602887588761345E-1   -7.046179648867945E-1
 1.129000000000000E+10   5.835346625810720E-1   -7.712934315284593E-1
 1.130000000000000E+10   5.003070049546841E-1   -8.290603489984623E-1
 1.131000000000000E+10   4.112133974686860E-1   -8.769857352492587E-1
 1.132000000000000E+10   3.179538244585742E-1   -9.152485238808966E-1
 1.133000000000000E+10   2.211379767036037E-1   -9.435277687592257E-1
 1.134000000000000E+10   1.214956047848385E-1   -9.618176561711673E-1
 1.135000000000000E+10   1.960536786069048E-2   -9.700182884709094E-1
 1.136000000000000E+10  -8.316521048568556E-2   -9.675914556237036E-1
 1.137000000000000E+10  -1.859164552719235E-1   -9.540965760899091E-1
 1.138000000000000E+10  -2.873270674946706E-1   -9.290278213907150E-1
 1.139000000000000E+10  -3.853584729681583E-1   -8.928719465408156E-1
 1.140000000000000E+10  -4.788093962389076E-1   -8.456417843758806E-1
 1.141000000000000E+10  -5.665658017058469E-1   -7.882280763394228E-1
 1.142000000000000E+10  -6.473504458909979E-1   -7.212746471728084E-1
 1.143000000000000E+10  -7.207616141282593E-1   -6.461606311467759E-1
 1.144000000000000E+10  -7.862368195470533E-1   -5.636685891645861E-1
 1.145000000000000E+10  -8.427862467600699E-1   -4.745396514713137E-1
 1.146000000000000E+10  -8.896713552062445E-1   -3.788651467940095E-1
 1.147000000000000E+10  -9.259486282158986E-1   -2.784444428565939E-1
 1.148000000000000E+10  -9.500386376501884E-1   -1.740561750949109E-1
 1.149000000000000E+10  -9.625683319049145E-1   -6.719116414769986E-2
 1.150000000000000E+10  -9.618607490970060E-1    4.068938400099373E-2
 1.151000000000000E+10  -9.490478509254552E-1    1.476406466486379E-1
 1.152000000000000E+10  -9.242906936005794E-1    2.523548844370908E-1
 1.153000000000000E+10  -8.882764588766007E-1    3.538734992699475E-1
 1.154000000000000E+10  -8.415604924778772E-1    4.506671630409984E-1
 1.155000000000000E+10  -7.847923265761416E-1    5.417485727449400E-1
 1.156000000000000E+10  -7.186081616314549E-1    6.260129311749205E-1
 1.157000000000000E+10  -6.435232991730043E-1    7.024890481570175E-1
 1.158000000000000E+10  -5.603008193797535E-1    7.699959038066226E-1
 1.159000000000000E+10  -4.697519875569936E-1    8.272693595157140E-1
 1.160000000000000E+10  -3.734836701193357E-1    8.734757944560325E-1
 1.161000000000000E+10  -2.730958049662938E-1    9.082168897259902E-1
 1.162000000000000E+10  -1.700722635549003E-1    9.313357883385164E-1
 1.163000000000000E+10  -6.629265627615050E-2    9.431044301585059E-1
 1.164000000000000E+10   3.685111840940514E-2    9.440791122040625E-1
 1.165000000000000E+10   1.382309228963628E-1    9.344325509403167E-1
 1.166000000000000E+10   2.369198953626975E-1    9.146187035878883E-1
 1.167000000000000E+10   3.320185709267992E-1    8.845603617498846E-1
 1.168000000000000E+10   4.227790882824709E-1    8.444521909896859E-1
 1.169000000000000E+10   5.082098021363685E-1    7.950201347078185E-1
 1.170000000000000E+10   5.873805880612810E-1    7.365731033045190E-1
 1.171000000000000E+10   6.598086396823651E-1    6.706520078868495E-1
 1.172000000000000E+10   7.246240175776651E-1    5.981501625257430E-1
 1.173000000000000E+10   7.814998605509423E-1    5.205232040177599E-1
 1.174000000000000E+10   8.299883573319948E-1    4.390468134021542E-1
 1.175000000000000E+10   8.699556534297063E-1    3.546304672872686E-1
 1.176000000000000E+10   9.009402246396295E-1    2.684703058666341E-1
 1.177000000000000E+10   9.231951731806844E-1    1.814725497258728E-1
 1.178000000000000E+10   9.365503334549946E-1    9.378590654991943E-2
 1.179000000000000E+10   9.408996543901443E-1    5.778686588983976E-3
 1.180000000000000E+10   9.366656485201232E-1   -8.177971122468580E-2
 1.181000000000000E+10   9.238429958226939E-1   -1.685723608663447E-1
 1.182000000000000E+10   9.026917495197915E-1   -2.539669815586318E-1
 1.183000000000000E+10   8.744773163458159E-1   -3.367909288216677E-1
 1.184000000000000E+10   8.394706478489425E-1   -4.167712412259927E-1
 1.185000000000000E+10   7.983377933416883E-1   -4.926935044924246E-1
 1.186000000000000E+10   7.516605796377070E-1   -5.641283810641393E-1
 1.187000000000000E+10   6.993191281021516E-1   -6.305488186595518E-1
 1.188000000000000E+10   6.415424261710925E-1   -6.913371581816966E-1
 1.189000000000000E+10   5.783812965279207E-1   -7.461164542401713E-1
 1.190000000000000E+10   5.099401022680358E-1   -7.945194614356715E-1
 1.191000000000000E+10   4.368387725307492E-1   -8.362152454613851E-1
 1.192000000000000E+10   3.594752868789734E-1   -8.715243094333962E-1
 1.193000000000000E+10   2.787339037620701E-1   -9.000238055458255E-1
 1.194000000000000E+10   1.956494371754939E-1   -9.219241138702352E-1
 1.195000000000000E+10   1.111131717864053E-1   -9.369079195735303E-1
 1.196000000000000E+10   2.591424312458183E-2   -9.450525368321064E-1
 1.197000000000000E+10  -5.955211125514415E-2   -9.458759525569046E-1
 1.198000000000000E+10  -1.441308620002124E-1   -9.390049643277354E-1
 1.199000000000000E+10  -2.280112368960082E-1   -9.240614182680967E-1
 1.200000000000000E+10  -3.107214342070807E-1   -9.008162426368872E-1
 1.201000000000000E+10  -3.919002450463259E-1   -8.684537369418498E-1
 1.202000000000000E+10  -4.715483193157724E-1   -8.275143349530680E-1
 1.203000000000000E+10  -5.483883073658947E-1   -7.780745421814484E-1
 1.204000000000000E+10  -6.216199428787633E-1   -7.205306882395596E-1
 1.205000000000000E+10  -6.901594321833815E-1   -6.555393136214259E-1
 1.206000000000000E+10  -7.533074832995738E-1   -5.838378610055784E-1
 1.207000000000000E+10  -8.095808200680736E-1   -5.064829587527543E-1
 1.208000000000000E+10  -8.581413519981420E-1   -4.234961848349940E-1
 1.209000000000000E+10  -8.980145160665447E-1   -3.353335515731642E-1
 1.210000000000000E+10  -9.283920763301480E-1   -2.424760649871104E-1
 1.211000000000000E+10  -9.482420442322547E-1   -1.452209338294080E-1
 1.212000000000000E+10  -9.576059750607542E-1   -4.431907683965838E-2
 1.213000000000000E+10  -9.557691897404750E-1    5.938449744815816E-2
 1.214000000000000E+10  -9.426350003376196E-1    1.639883485470336E-1
 1.215000000000000E+10  -9.180503842749400E-1    2.687589369088564E-1
 1.216000000000000E+10  -8.821511290420967E-1    3.712281995486700E-1
 1.217000000000000E+10  -8.348876069987833E-1    4.696901359482775E-1
 1.218000000000000E+10  -7.764992988203304E-1    5.624049971864110E-1
 1.219000000000000E+10  -7.067732765600618E-1    6.476489064246910E-1
 1.220000000000000E+10  -6.263013652469934E-1    7.240876016325141E-1
 1.221000000000000E+10  -5.361203943193584E-1    7.905850762750197E-1
 1.222000000000000E+10  -4.365029470138028E-1    8.455782799302839E-1
 1.223000000000000E+10  -3.295673900448236E-1    8.889634210530822E-1
 1.224000000000000E+10  -2.163694553886393E-1    9.203181974469921E-1
 1.225000000000000E+10  -9.974838746659254E-2    9.380369789687470E-1
 1.226000000000000E+10   1.782509091762069E-2    9.419545894034768E-1
 1.227000000000000E+10   1.334634191567999E-1    9.326201706996613E-1
 1.228000000000000E+10   2.455895533294042E-1    9.095720454155047E-1
 1.229000000000000E+10   3.525578974991483E-1    8.729367961322654E-1
 1.230000000000000E+10   4.527210999808762E-1    8.235359728219980E-1
 1.231000000000000E+10   5.452517580418037E-1    7.614878470057126E-1
 1.232000000000000E+10   6.291345331065953E-1    6.877208212378375E-1
 1.233000000000000E+10   7.037026407518223E-1    6.041269363280869E-1
 1.234000000000000E+10   7.681468119833157E-1    5.118811173685277E-1
 1.235000000000000E+10   8.214809128910997E-1    4.133722227103599E-1
 1.236000000000000E+10   8.633326692486125E-1    3.106861243434111E-1
 1.237000000000000E+10   8.928640352681805E-1    2.065370442353161E-1
 1.238000000000000E+10   9.103236558890524E-1    1.024964159894468E-1
 1.239000000000000E+10   9.153801606921363E-1    1.515482540587053E-4
 1.240000000000000E+10   9.086717997093999E-1   -9.937716266791298E-2
 1.241000000000000E+10   8.905290512418673E-1   -1.955702457758188E-1
 1.242000000000000E+10   8.616158190821935E-1   -2.883059390097178E-1
 1.243000000000000E+10   8.229152621545734E-1   -3.767802597158869E-1
 1.244000000000000E+10   7.753607302919397E-1   -4.606105643647135E-1
 1.245000000000000E+10   7.203129926589186E-1   -5.387630841591544E-1
 1.246000000000000E+10   6.588826358806527E-1   -6.106557966401794E-1
 1.247000000000000E+10   5.923213040078703E-1   -6.749878647329982E-1
 1.248000000000000E+10   5.218297168018270E-1   -7.312479540370008E-1
 1.249000000000000E+10   4.482128034825027E-1   -7.790070092113215E-1
 1.250000000000000E+10   3.722210043640953E-1   -8.179131897692951E-1
