#  HZ   S   RI   R     50.00 
! Rohde & Schwarz Vector Network Analyzer 
! Rohde-Schwarz,ZNA43-4Port,1332450044101932,2.92
! Created: UTC 6/1/2026, 11:34:18 AM
! freq[Hz]                re:S11                  im:S11
 8.000000000000000E9     8.447140712605025E-1    4.815170179808153E-1
 8.010000000000000E9     8.935132854092871E-1    3.814744928131300E-1
 8.020000000000000E9     9.315028724674336E-1    2.700331845725003E-1
 8.030000000000000E9     9.564323981712581E-1    1.471742742515584E-1
 8.040000000000000E9     9.649582279635851E-1    1.362156480558303E-2
 8.050000000000000E9     9.540473454837377E-1   -1.285123478858871E-1
 8.060000000000000E9     9.202198361954572E-1   -2.761619412063911E-1
 8.070000000000000E9     8.601769385244674E-1   -4.250719210651913E-1
 8.080000000000000E9     7.708020939124585E-1   -5.695266229687336E-1
 8.090000000000000E9     6.502717177267038E-1   -7.024827592481288E-1
 8.100000000000000E9     4.977540255473765E-1   -8.151354405474093E-1
 8.110000000000000E9     3.156256918506609E-1   -8.981329236182726E-1
 8.120000000000000E9     1.102008485626107E-1   -9.419854068878615E-1
 8.130000000000000E9    -1.079681112911669E-1   -9.388868192528018E-1
 8.140000000000000E9    -3.250446095471792E-1   -8.851596679312302E-1
 8.150000000000000E9    -5.260193984404306E-1   -7.823066280876625E-1
 8.160000000000000E9    -6.968438376066334E-1   -6.368723557527328E-1
 8.170000000000000E9    -8.270373130040282E-1   -4.598094742898152E-1
 8.180000000000000E9    -9.110149395459689E-1   -2.638246386161029E-1
 8.190000000000000E9    -9.478806993576838E-1   -6.181331853166321E-2
 8.200000000000000E9    -9.409182314767048E-1    1.351203866471838E-1
 8.210000000000000E9    -8.961941396717539E-1    3.178763828897336E-1
 8.220000000000000E9    -8.215623788364554E-1    4.806130732256749E-1
 8.230000000000000E9    -7.246642114252418E-1    6.197354795491826E-1
 8.240000000000000E9    -6.127862319264148E-1    7.342197927464597E-1
 8.250000000000000E9    -4.922274324045717E-1    8.239320333468143E-1
 8.260000000000000E9    -3.673390572341666E-1    8.903620294876016E-1
 8.270000000000000E9    -2.413472697041824E-1    9.351054155080838E-1
 8.280000000000000E9    -1.165470321881658E-1    9.603870826368941E-1
 8.290000000000000E9     5.960477683749874E-3    9.680752837651103E-1
 8.300000000000000E9     1.249529536480800E-1    9.596347255350945E-1
 8.310000000000000E9     2.389787868199516E-1    9.370251839357446E-1
 8.320000000000000E9     3.471548181604222E-1    9.020960306866578E-1
 8.330000000000000E9     4.483984108497284E-1    8.566391006828693E-1
 8.340000000000000E9     5.418047117366307E-1    8.022339809082986E-1
 8.350000000000000E9     6.265324594515339E-1    7.400683963178531E-1
 8.360000000000000E9     7.023885705598174E-1    6.712581141171844E-1
 8.370000000000000E9     7.691481302495526E-1    5.961956962077369E-1
 8.380000000000000E9     8.262783195477673E-1    5.153939116645474E-1
 8.390000000000000E9     8.739355299127117E-1    4.290656027072945E-1
 8.400000000000000E9     9.121020234190355E-1    3.374884649184815E-1
 8.410000000000000E9     9.408212749580084E-1    2.414567216833144E-1
 8.420000000000000E9     9.596976389584607E-1    1.418803343166755E-1
 8.430000000000000E9     9.686696268497789E-1    3.984647053824239E-2
 8.440000000000000E9     9.676771177358029E-1   -6.308560907418249E-2
 8.450000000000000E9     9.564239540628948E-1   -1.654475601837939E-1
 8.460000000000000E9     9.344565085193764E-1   -2.658552196113884E-1
 8.470000000000000E9     9.017076343897070E-1   -3.637225016310560E-1
 8.480000000000000E9     8.577830515579842E-1   -4.577963177223938E-1
 8.490000000000000E9     8.025150974127999E-1   -5.477077221790602E-1
 8.500000000000000E9     7.358241781947090E-1   -6.327324364120491E-1
 8.510000000000000E9     6.570415489451161E-1   -7.111029129650970E-1
 8.520000000000000E9     5.671800504418444E-1   -7.822296573456473E-1
 8.530000000000000E9     4.677450926531151E-1   -8.439630865606783E-1
 8.540000000000000E9     3.600787922144879E-1   -8.949420674470664E-1
 8.550000000000000E9     2.460040033182693E-1   -9.334353486669261E-1
 8.560000000000000E9     1.273451628497155E-1   -9.577290941808071E-1
 8.570000000000000E9     6.070882849703685E-3   -9.668258750379084E-1
 8.580000000000000E9    -1.163975537859007E-1   -9.597474477888810E-1
 8.590000000000000E9    -2.381167383423806E-1   -9.359023843354357E-1
 8.600000000000000E9    -3.573962752044956E-1   -8.949426460273425E-1
 8.610000000000000E9    -4.723857328334559E-1   -8.372350557194236E-1
 8.620000000000000E9    -5.804837732347988E-1   -7.636514042125973E-1
 8.630000000000000E9    -6.792641204185812E-1   -6.755631092055582E-1
 8.640000000000000E9    -7.664221392515173E-1   -5.749852753120547E-1
 8.650000000000000E9    -8.394561335241365E-1   -4.639486544797670E-1
 8.660000000000000E9    -8.966416174788819E-1   -3.449169287487154E-1
 8.670000000000000E9    -9.364710063056138E-1   -2.201397593767083E-1
 8.680000000000000E9    -9.581153360976727E-1   -9.192456999763307E-2
 8.690000000000000E9    -9.613410239600764E-1    3.752603671482402E-2
 8.700000000000000E9    -9.463325487477681E-1    1.664428814117348E-1
 8.710000000000000E9    -9.137015904650617E-1    2.924912487698915E-1
 8.720000000000000E9    -8.643743720660847E-1    4.133357217200304E-1
 8.730000000000000E9    -8.001838607275247E-1    5.264150362004182E-1
 8.740000000000000E9    -7.229720634623121E-1    6.294316377103660E-1
 8.750000000000000E9    -6.344644288794939E-1    7.205160403840997E-1
 8.760000000000000E9    -5.367199622319417E-1    7.982124646838878E-1
 8.770000000000000E9    -4.315253324309022E-1    8.613781044335939E-1
 8.780000000000000E9    -3.197832578759058E-1    9.095089278746455E-1
 8.790000000000000E9    -2.031235847755410E-1    9.421726817860647E-1
 8.800000000000000E9    -8.313545439384779E-2    9.592342532946115E-1
 8.810000000000000E9     3.875469106459123E-2    9.606872693045918E-1
 8.820000000000000E9     1.605226385687062E-1    9.470204746310670E-1
 8.830000000000000E9     2.802243228100831E-1    9.186663951899702E-1
 8.840000000000000E9     3.954497533313408E-1    8.758613277026568E-1
 8.850000000000000E9     5.041835337738576E-1    8.195761949964389E-1
 8.860000000000000E9     6.040763099488465E-1    7.502555407164806E-1
 8.870000000000000E9     6.941051559923206E-1    6.689648171499191E-1
 8.880000000000000E9     7.725284428388051E-1    5.764458073804160E-1
 8.890000000000000E9     8.383109576160888E-1    4.731205640828464E-1
 8.900000000000000E9     8.908467663443340E-1    3.603437261691315E-1
 8.910000000000000E9     9.286336984549808E-1    2.395349358505608E-1
 8.920000000000000E9     9.507393936181695E-1    1.122287255230279E-1
 8.930000000000000E9     9.562845133828040E-1   -1.914521875149243E-2
 8.940000000000000E9     9.442843828809855E-1   -1.517177832764464E-1
 8.950000000000000E9     9.141893790952905E-1   -2.821445329338232E-1
 8.960000000000000E9     8.660256441584206E-1   -4.077275638196143E-1
 8.970000000000000E9     7.998212834769561E-1   -5.254897946513485E-1
 8.980000000000000E9     7.162707458189846E-1   -6.330330433809441E-1
 8.990000000000000E9     6.167062068173259E-1   -7.281658706628423E-1
 9.000000000000000E9     5.023320248858945E-1   -8.084066808152741E-1
 9.010000000000000E9     3.755679951127733E-1   -8.721640854927516E-1
 9.020000000000000E9     2.390938843238413E-1   -9.174902128651846E-1
 9.030000000000000E9     9.676971507899196E-2   -9.426690484039424E-1
 9.040000000000000E9    -4.722982263348920E-2   -9.466932951049661E-1
 9.050000000000000E9    -1.892589748960962E-1   -9.297027340828273E-1
 9.060000000000000E9    -3.250540684344307E-1   -8.923919140313534E-1
 9.070000000000000E9    -4.519359101513224E-1   -8.357092462388162E-1
 9.080000000000000E9    -5.670407887219442E-1   -7.617822784448386E-1
 9.090000000000000E9    -6.687275462912108E-1   -6.728412064850203E-1
 9.100000000000000E9    -7.561239580582179E-1   -5.712740401954557E-1
 9.110000000000000E9    -8.279178346743846E-1   -4.597120876895012E-1
 9.120000000000000E9    -8.835301027462932E-1   -3.411907225719986E-1
 9.130000000000000E9    -9.225659639762596E-1   -2.187283529424814E-1
 9.140000000000000E9    -9.450538574607947E-1   -9.538360366024100E-2
 9.150000000000000E9    -9.514937582232078E-1    2.614284414897949E-2
 9.160000000000000E9    -9.427688420318150E-1    1.432318476165987E-1
 9.170000000000000E9    -9.203700979093539E-1    2.543631619138412E-1
 9.180000000000000E9    -8.854647476892528E-1    3.585352390249599E-1
 9.190000000000000E9    -8.400317195197025E-1    4.550996359761171E-1
 9.200000000000000E9    -7.855029130279686E-1    5.439125470728867E-1
 9.210000000000000E9    -7.231382193516355E-1    6.251360919936003E-1
 9.220000000000000E9    -6.538872112257350E-1    6.984067373130453E-1
 9.230000000000000E9    -5.793750029567694E-1    7.631052518048392E-1
 9.240000000000000E9    -5.002882707652909E-1    8.192406891635714E-1
 9.250000000000000E9    -4.178772342301398E-1    8.662962831898016E-1
 9.260000000000000E9    -3.337955969674857E-1    9.037733263700588E-1
 9.270000000000000E9    -2.486698124096214E-1    9.320920536008684E-1
 9.280000000000000E9    -1.633715063210819E-1    9.514351617459486E-1
 9.290000000000000E9    -7.839281645597575E-2    9.623684187309610E-1
 9.300000000000000E9     5.872410304331907E-3    9.656001041388056E-1
 9.310000000000000E9     8.936054051132526E-2    9.615036043927783E-1
 9.320000000000000E9     1.716727617789751E-1    9.507215051039588E-1
 9.330000000000000E9     2.526783001503183E-1    9.333200916658090E-1
 9.340000000000000E9     3.318691009667595E-1    9.096225885374906E-1
 9.350000000000000E9     4.085659242345385E-1    8.794692128941292E-1
 9.360000000000000E9     4.821851376569128E-1    8.429355655877632E-1
 9.370000000000000E9     5.519269942552322E-1    8.004198003566892E-1
 9.380000000000000E9     6.172900240686217E-1    7.520225747891797E-1
 9.390000000000000E9     6.778358191896358E-1    6.980800633734543E-1
 9.400000000000000E9     7.336442595192136E-1    6.390835758471053E-1
 9.410000000000000E9     7.843748901991137E-1    5.751420261123982E-1
 9.420000000000000E9     8.302221739596294E-1    5.066222283474954E-1
 9.430000000000000E9     8.709749690505185E-1    4.332380308129802E-1
 9.440000000000000E9     9.060526657120193E-1    3.549460273259856E-1
 9.450000000000000E9     9.346493659257852E-1    2.717907599150833E-1
 9.460000000000000E9     9.558707237898338E-1    1.840012822997053E-1
 9.470000000000000E9     9.689568677367055E-1    9.158328757590957E-2
 9.480000000000000E9     9.725305366314071E-1   -4.313922830744680E-3
 9.490000000000000E9     9.655216593224080E-1   -1.031697007845939E-1
 9.500000000000000E9     9.475023598861383E-1   -2.042367484343055E-1
 9.510000000000000E9     9.158096996819091E-1   -3.065036502989921E-1
 9.520000000000000E9     8.674371503500593E-1   -4.090534987433310E-1
 9.530000000000000E9     7.952273777520316E-1   -5.058021729852714E-1
 9.540000000000000E9     6.976500825686841E-1   -5.620396651111136E-1
 9.550000000000000E9     6.700239940147598E-1   -5.942875915828411E-1
 9.560000000000000E9     6.187662849928719E-1   -6.994569404296529E-1
 9.570000000000000E9     5.192463516242433E-1   -7.918308166456168E-1
 9.580000000000000E9     3.979011927997947E-1   -8.628624502051406E-1
 9.590000000000000E9     2.617948457181344E-1   -9.127410088842759E-1
 9.600000000000000E9     1.143484293631401E-1   -9.401491042958598E-1
 9.610000000000000E9    -4.050823880249910E-2   -9.432890748599567E-1
 9.620000000000000E9    -1.979559171712648E-1   -9.199272632004745E-1
 9.630000000000000E9    -3.533185127260947E-1   -8.689169395987981E-1
 9.640000000000000E9    -5.004827137010013E-1   -7.901073913801435E-1
 9.650000000000000E9    -6.334805414796023E-1   -6.840341385993720E-1
 9.660000000000000E9    -7.457232386638883E-1   -5.535221387317876E-1
 9.670000000000000E9    -8.320225250602115E-1   -4.037517719021101E-1
 9.680000000000000E9    -8.886572853611290E-1   -2.410389723074778E-1
 9.690000000000000E9    -9.142479561730291E-1   -7.288103013669398E-2
 9.700000000000000E9    -9.094874630820661E-1    9.364832415567345E-2
 9.710000000000000E9    -8.769378901900802E-1    2.519631451233031E-1
 9.720000000000000E9    -8.203902291060130E-1    3.974656257775564E-1
 9.730000000000000E9    -7.439416410640930E-1    5.264107846721970E-1
 9.740000000000000E9    -6.518913430687817E-1    6.368617114842881E-1
 9.750000000000000E9    -5.483547551751026E-1    7.277409826951737E-1
 9.760000000000000E9    -4.373161220915552E-1    7.991286326483538E-1
 9.770000000000000E9    -3.222896357903169E-1    8.516365287595183E-1
 9.780000000000000E9    -2.068199897757574E-1    8.863193446303833E-1
 9.790000000000000E9    -9.340466798272642E-2    9.053270622249433E-1
 9.800000000000000E9     1.577650099947299E-2    9.104796488285377E-1
 9.810000000000000E9     1.193283824653100E-1    9.038281176049381E-1
 9.820000000000000E9     2.162780110089553E-1    8.871624672662384E-1
 9.830000000000000E9     3.068316655989022E-1    8.615253169363750E-1
 9.840000000000000E9     3.907238778996085E-1    8.281423327647178E-1
 9.850000000000000E9     4.680457507732512E-1    7.876598770205125E-1
 9.860000000000000E9     5.386404676933670E-1    7.407643434935729E-1
 9.870000000000000E9     6.026789427600008E-1    6.884851902447691E-1
 9.880000000000000E9     6.604631173217667E-1    6.319932094283285E-1
 9.890000000000000E9     7.119130581975223E-1    5.725457493251755E-1
 9.900000000000000E9     7.571528268725939E-1    5.109258813452784E-1
 9.910000000000000E9     7.964172018067368E-1    4.482008295294271E-1
 9.920000000000000E9     8.299477112013686E-1    3.847709460601846E-1
 9.930000000000000E9     8.577944105143805E-1    3.210245790751522E-1
 9.940000000000000E9     8.801605973059944E-1    2.567846031400711E-1
 9.950000000000000E9     8.969455907345479E-1    1.920155316096479E-1
 9.960000000000000E9     9.082925186290715E-1    1.265166186457358E-1
 9.970000000000000E9     9.142733411623113E-1    6.020080680792621E-2
 9.980000000000000E9     9.151566444222382E-1   -6.748689968108750E-3
 9.990000000000000E9     9.110348438885311E-1   -7.384454899961299E-2
 1.000000000000000E+10   9.024923982556826E-1   -1.405212427463766E-1
 1.001000000000000E+10   8.899606771554605E-1   -2.063365052809124E-1
 1.002000000000000E+10   8.734592900717855E-1   -2.706876934023849E-1
 1.003000000000000E+10   8.530211451235752E-1   -3.330747329636714E-1
 1.004000000000000E+10   8.285716498741300E-1   -3.936520285852356E-1
 1.005000000000000E+10   7.997621778731475E-1   -4.523471099064724E-1
 1.006000000000000E+10   7.659366632807131E-1   -5.093701693779644E-1
 1.007000000000000E+10   7.267527211460704E-1   -5.645675748602894E-1
 1.008000000000000E+10   6.815473910401715E-1   -6.179811828882756E-1
 1.009000000000000E+10   6.304051888091177E-1   -6.695702236478864E-1
 1.010000000000000E+10   5.735585588249016E-1   -7.185683759850264E-1
 1.011000000000000E+10   5.112944583641171E-1   -7.644418718895413E-1
 1.012000000000000E+10   4.447682019921521E-1   -8.065169723093227E-1
 1.013000000000000E+10   3.739382257215859E-1   -8.439344666682775E-1
 1.014000000000000E+10   2.992605005741371E-1   -8.757277181800134E-1
 1.015000000000000E+10   2.209382434106262E-1   -9.012439209791251E-1
 1.016000000000000E+10   1.383358926717997E-1   -9.196216100873179E-1
 1.017000000000000E+10   5.109560416706504E-2   -9.297473003606351E-1
 1.018000000000000E+10  -4.068374222106781E-2   -9.303646342264945E-1
 1.019000000000000E+10  -1.368590978279205E-1   -9.208264200658338E-1
 1.020000000000000E+10  -2.368180759459684E-1   -8.998768175790509E-1
 1.021000000000000E+10  -3.388671333495730E-1   -8.666792789042751E-1
 1.022000000000000E+10  -4.407777245498126E-1   -8.203683547756585E-1
 1.023000000000000E+10  -5.398498393809387E-1   -7.610279366775765E-1
 1.024000000000000E+10  -6.337721789570581E-1   -6.885306666292564E-1
 1.025000000000000E+10  -7.193374199481432E-1   -6.026725507942724E-1
 1.026000000000000E+10  -7.946268874412800E-1   -5.038025718077191E-1
 1.027000000000000E+10  -8.569802083658350E-1   -3.920317598525210E-1
 1.028000000000000E+10  -9.039695307406748E-1   -2.676099598352457E-1
 1.029000000000000E+10  -9.328324142636403E-1   -1.319768320719335E-1
 1.030000000000000E+10  -9.414882642895835E-1    1.230848422927698E-2
 1.031000000000000E+10  -9.277674753690384E-1    1.613235192431277E-1
 1.032000000000000E+10  -8.907104380535656E-1    3.098549272222044E-1
 1.033000000000000E+10  -8.306431925169562E-1    4.523224889118373E-1
 1.034000000000000E+10  -7.491685154087541E-1    5.835356776673376E-1
 1.035000000000000E+10  -6.482309120160805E-1    6.989761774221007E-1
 1.036000000000000E+10  -5.315201566012203E-1    7.951854354255935E-1
 1.037000000000000E+10  -4.017594805353151E-1    8.701950079620729E-1
 1.038000000000000E+10  -2.628229250934528E-1    9.226170459674704E-1
 1.039000000000000E+10  -1.183347906272938E-1    9.520760578496591E-1
 1.040000000000000E+10   2.732657542512877E-2    9.593491783650524E-1
 1.041000000000000E+10   1.701224278690560E-1    9.455593758767141E-1
 1.042000000000000E+10   3.063602019114667E-1    9.126262045028976E-1
 1.043000000000000E+10   4.322565661927413E-1    8.630654576197164E-1
 1.044000000000000E+10   5.457653140089297E-1    7.994864712867501E-1
 1.045000000000000E+10   6.451922686842259E-1    7.247895506004298E-1
 1.046000000000000E+10   7.304524014033609E-1    6.403910336816658E-1
 1.047000000000000E+10   8.014659705032723E-1    5.490762752812949E-1
 1.048000000000000E+10   8.593803688355141E-1    4.522514133804564E-1
 1.049000000000000E+10   9.042344587318822E-1    3.509222109012829E-1
 1.050000000000000E+10   9.371904630284288E-1    2.472029067715638E-1
 1.051000000000000E+10   9.587004441458103E-1    1.430306467912640E-1
 1.052000000000000E+10   9.691787926931144E-1    3.989782498285230E-2
 1.053000000000000E+10   9.696389106697018E-1   -6.044594727598934E-2
 1.054000000000000E+10   9.605748645362769E-1   -1.565601102668271E-1
 1.055000000000000E+10   9.424335821331160E-1   -2.477184345532551E-1
 1.056000000000000E+10   9.160961094238749E-1   -3.338885044662338E-1
 1.057000000000000E+10   8.812056219458451E-1   -4.151038973225136E-1
 1.058000000000000E+10   8.389314527716173E-1   -4.914859311259041E-1
 1.059000000000000E+10   7.898190522485572E-1   -5.635718285883434E-1
 1.060000000000000E+10   7.341845308087998E-1   -6.311654734133768E-1
 1.061000000000000E+10   6.729785070307294E-1   -6.942341848013073E-1
 1.062000000000000E+10   6.072004428212675E-1   -7.520048200044025E-1
 1.063000000000000E+10   5.380282273863056E-1   -8.038038587347091E-1
 1.064000000000000E+10   4.659878465746304E-1   -8.491221762489751E-1
 1.065000000000000E+10   3.919245891765851E-1   -8.868441416354922E-1
 1.066000000000000E+10   3.161504942519153E-1   -9.171895615494932E-1
 1.067000000000000E+10   2.390716141465087E-1   -9.396714194547493E-1
 1.068000000000000E+10   1.600334893114671E-1   -9.546320098576876E-1
 1.069000000000000E+10   7.905819382497563E-2   -9.622910850984387E-1
 1.070000000000000E+10  -3.973601603159336E-3   -9.626939173643055E-1
 1.071000000000000E+10  -8.896738355382126E-2   -9.557874779645545E-1
 1.072000000000000E+10  -1.747504469863022E-1   -9.419783057835804E-1
 1.073000000000000E+10  -2.602381798394016E-1   -9.209568987693981E-1
 1.074000000000000E+10  -3.439208537172919E-1   -8.931018746946884E-1
 1.075000000000000E+10  -4.244230194366601E-1   -8.582980746808232E-1
 1.076000000000000E+10  -5.008461452046132E-1   -8.163948489028119E-1
 1.077000000000000E+10  -5.721984178912903E-1   -7.675126487583881E-1
 1.078000000000000E+10  -6.385777196135780E-1   -7.115750713013921E-1
 1.079000000000000E+10  -6.993523732790874E-1   -6.484401476267041E-1
 1.080000000000000E+10  -7.547968412440017E-1   -5.781528634842862E-1
 1.081000000000000E+10  -8.044934405257028E-1   -5.005420171396604E-1
 1.082000000000000E+10  -8.482322354317336E-1   -4.163489554069791E-1
 1.083000000000000E+10  -8.847670241175063E-1   -3.262825741404719E-1
 1.084000000000000E+10  -9.132483715189653E-1   -2.315620963506017E-1
 1.085000000000000E+10  -9.326182080718364E-1   -1.336593540350714E-1
 1.086000000000000E+10  -9.416906035906052E-1   -3.423196142911964E-2
 1.087000000000000E+10  -9.399519599642647E-1    6.527293092179436E-2
 1.088000000000000E+10  -9.270098121614621E-1    1.644289335112054E-1
 1.089000000000000E+10  -9.024500482362928E-1    2.620026976013152E-1
 1.090000000000000E+10  -8.666089460972636E-1    3.576851724560429E-1
 1.091000000000000E+10  -8.195163614060447E-1    4.505373746678191E-1
 1.092000000000000E+10  -7.612643879167107E-1    5.400978203474487E-1
 1.093000000000000E+10  -6.919960446896173E-1    6.245881227004818E-1
 1.094000000000000E+10  -6.129825015035142E-1    7.023557075850467E-1
 1.095000000000000E+10  -5.249876250045836E-1    7.710858388250587E-1
 1.096000000000000E+10  -4.297500975133419E-1    8.294996532543334E-1
 1.097000000000000E+10  -3.287899403971123E-1    8.755150839299071E-1
 1.098000000000000E+10  -2.236412050524399E-1    9.088095233367108E-1
 1.099000000000000E+10  -1.156618290396757E-1    9.289456262214109E-1
 1.100000000000000E+10  -5.869503336341944E-3    9.357026273704571E-1
 1.101000000000000E+10   1.046643278835103E-1    9.294256523037099E-1
 1.102000000000000E+10   2.152498577515790E-1    9.101196801948077E-1
 1.103000000000000E+10   3.241486502791607E-1    8.781774613373202E-1
 1.104000000000000E+10   4.294900650114934E-1    8.337286287565699E-1
 1.105000000000000E+10   5.289465114587594E-1    7.773389641663769E-1
 1.106000000000000E+10   6.204283656240244E-1    7.102866927822693E-1
 1.107000000000000E+10   7.020081730793541E-1    6.336064830446935E-1
 1.108000000000000E+10   7.728854300185365E-1    5.487425736897283E-1
 1.109000000000000E+10   8.320706581547135E-1    4.573984257200867E-1
 1.110000000000000E+10   8.794696876586839E-1    3.605389487564285E-1
 1.111000000000000E+10   9.152083807209049E-1    2.595898640891358E-1
 1.112000000000000E+10   9.396716201781526E-1    1.552431362515606E-1
 1.113000000000000E+10   9.528254079922743E-1    4.881702403750950E-2
 1.114000000000000E+10   9.544881776022968E-1   -5.886138715953917E-2
 1.115000000000000E+10   9.445001828097692E-1   -1.657295111081729E-1
 1.116000000000000E+10   9.226742814621770E-1   -2.705848713649045E-1
 1.117000000000000E+10   8.892330911035059E-1   -3.715545397375184E-1
 1.118000000000000E+10   8.451690974041439E-1   -4.667768191936000E-1
 1.119000000000000E+10   7.910655260709996E-1   -5.552381160357377E-1
 1.120000000000000E+10   7.280606166060978E-1   -6.369270157003606E-1
 1.121000000000000E+10   6.565380152237619E-1   -7.110864157048069E-1
 1.122000000000000E+10   5.778800034328679E-1   -7.772037265876767E-1
 1.123000000000000E+10   4.924369675559866E-1   -8.351334781459261E-1
 1.124000000000000E+10   4.008600054003340E-1   -8.841422818334185E-1
 1.125000000000000E+10   3.046555594565437E-1   -9.233196690048482E-1
 1.126000000000000E+10   2.046670823299322E-1   -9.519119239403021E-1
 1.127000000000000E+10   1.022097648962941E-1   -9.691489461007126E-1
 1.128000000000000E+10  -1.071997986326933E-3   -9.750922014241989E-1
 1.129000000000000E+10  -1.037378601519296E-1   -9.692124738079848E-1
 1.130000000000000E+10  -2.053532078383290E-1   -9.521229775828440E-1
 1.131000000000000E+10  -3.045727387989705E-1   -9.237848585243326E-1
 1.132000000000000E+10  -4.006434964213634E-1   -8.854102552470263E-1
 1.133000000000000E+10  -4.925050009501610E-1   -8.369735425753251E-1
 1.134000000000000E+10  -5.793473505750937E-1   -7.788591903027671E-1
 1.135000000000000E+10  -6.603589709410423E-1   -7.112543208116197E-1
 1.136000000000000E+10  -7.337063820623843E-1   -6.349140245993022E-1
 1.137000000000000E+10  -7.980561919760119E-1   -5.504225537743378E-1
 1.138000000000000E+10  -8.522829938249131E-1   -4.586916828938141E-1
 1.139000000000000E+10  -8.956995612395734E-1   -3.616444953888829E-1
 1.140000000000000E+10  -9.277634731897243E-1   -2.603887715486920E-1
 1.141000000000000E+10  -9.483525435193989E-1   -1.564394937696234E-1
 1.142000000000000E+10  -9.575827726777564E-1   -5.084793630049679E-2
 1.143000000000000E+10  -9.556289864938931E-1    5.506466082742217E-2
 1.144000000000000E+10  -9.426681759690759E-1    1.605380598605980E-1
 1.145000000000000E+10  -9.184079192308791E-1    2.639338802339685E-1
 1.146000000000000E+10  -8.824269658735023E-1    3.641746799512434E-1
 1.147000000000000E+10  -8.354254549577992E-1    4.596361029216830E-1
 1.148000000000000E+10  -7.776455401326499E-1    5.485713159177992E-1
 1.149000000000000E+10  -7.102893989886444E-1    6.304516859610972E-1
 1.150000000000000E+10  -6.343435748395921E-1    7.035731864828220E-1
 1.151000000000000E+10  -5.513587355266766E-1    7.676938005049648E-1
 1.152000000000000E+10  -4.624197696450286E-1    8.222816226712162E-1
 1.153000000000000E+10  -3.685246692483260E-1    8.670888284241237E-1
 1.154000000000000E+10  -2.710512918514966E-1    9.017895188715436E-1
 1.155000000000000E+10  -1.708779281346658E-1    9.258245967304273E-1
 1.156000000000000E+10  -6.899030961635980E-2    9.391267580397180E-1
 1.157000000000000E+10   3.335234039475549E-2    9.410053031403723E-1
 1.158000000000000E+10   1.348035987029054E-1    9.316291695417122E-1
 1.159000000000000E+10   2.341813603984607E-1    9.109177584181026E-1
 1.160000000000000E+10   3.297659701601990E-1    8.799405197976355E-1
 1.161000000000000E+10   4.205053450531680E-1    8.394746610731216E-1
 1.162000000000000E+10   5.057945790784057E-1    7.906633803193684E-1
 1.163000000000000E+10   5.848382686644550E-1    7.344066818547204E-1
 1.164000000000000E+10   6.570473407101500E-1    6.716150085638228E-1
 1.165000000000000E+10   7.217927321244522E-1    6.027506265431455E-1
 1.166000000000000E+10   7.789562596789001E-1    5.281833763351677E-1
 1.167000000000000E+10   8.275360419156871E-1    4.484487092595236E-1
 1.168000000000000E+10   8.673460180739996E-1    3.640873652179346E-1
 1.169000000000000E+10   8.983832858296439E-1    2.763168805899069E-1
 1.170000000000000E+10   9.200836197364189E-1    1.861336951357486E-1
 1.171000000000000E+10   9.334541723569215E-1    9.458019846562180E-2
 1.172000000000000E+10   9.380855392308283E-1    3.006937346420343E-3
 1.173000000000000E+10   9.346913415644874E-1   -8.744462315966875E-2
 1.174000000000000E+10   9.233486484951934E-1   -1.759615408785777E-1
 1.175000000000000E+10   9.041972961896875E-1   -2.619942437305847E-1
 1.176000000000000E+10   8.772793779081981E-1   -3.445849587189774E-1
 1.177000000000000E+10   8.429539712332254E-1   -4.234142111526839E-1
 1.178000000000000E+10   8.011952981370726E-1   -4.984435559790384E-1
 1.179000000000000E+10   7.519011680666646E-1   -5.692092336373514E-1
 1.180000000000000E+10   6.959456542052855E-1   -6.353153304043542E-1
 1.181000000000000E+10   6.335263703345492E-1   -6.964369295288212E-1
 1.182000000000000E+10   5.655112606743511E-1   -7.519613754068543E-1
 1.183000000000000E+10   4.932903375335608E-1   -8.017433713727720E-1
 1.184000000000000E+10   4.170384476263173E-1   -8.451217021444788E-1
 1.185000000000000E+10   3.376725464258193E-1   -8.816334615224992E-1
 1.186000000000000E+10   2.557143353554402E-1   -9.110192018552411E-1
 1.187000000000000E+10   1.712799350945412E-1   -9.324011867048216E-1
 1.188000000000000E+10   8.491617933578498E-2   -9.453831250159166E-1
 1.189000000000000E+10  -3.064877678266530E-3   -9.495039469841585E-1
 1.190000000000000E+10  -9.196854568683119E-2   -9.448155409697391E-1
 1.191000000000000E+10  -1.810769103840118E-1   -9.314020270864619E-1
 1.192000000000000E+10  -2.699638428662131E-1   -9.094494283824432E-1
 1.193000000000000E+10  -3.571893202651589E-1   -8.790152349434905E-1
 1.194000000000000E+10  -4.419701598069380E-1   -8.410092545691278E-1
 1.195000000000000E+10  -5.231110066473107E-1   -7.950152317580547E-1
 1.196000000000000E+10  -5.999642384301052E-1   -7.414458993057625E-1
 1.197000000000000E+10  -6.715132424519308E-1   -6.795041632730889E-1
 1.198000000000000E+10  -7.368504655344733E-1   -6.100226959332218E-1
 1.199000000000000E+10  -7.949407151782842E-1   -5.322718963715410E-1
 1.200000000000000E+10  -8.455000208104509E-1   -4.467920845313301E-1
 1.201000000000000E+10  -8.871843836528218E-1   -3.542393543097241E-1
 1.202000000000000E+10  -9.196490886922352E-1   -2.550199859867721E-1
 1.203000000000000E+10  -9.418760317774960E-1   -1.512498983683030E-1
 1.204000000000000E+10  -9.532140078191924E-1   -4.444612903101517E-2
 1.205000000000000E+10  -9.528713687078557E-1    6.341159395816177E-2
 1.206000000000000E+10  -9.406786641904056E-1    1.711632112428694E-1
 1.207000000000000E+10  -9.162502915735612E-1    2.771004704723117E-1
 1.208000000000000E+10  -8.788940565516431E-1    3.798942644620421E-1
 1.209000000000000E+10  -8.283881488868627E-1    4.784995583609389E-1
 1.210000000000000E+10  -7.651322719936365E-1    5.713027853352026E-1
 1.211000000000000E+10  -6.894492852880610E-1    6.568349670998098E-1
 1.212000000000000E+10  -6.027452006489324E-1    7.341971231218745E-1
 1.213000000000000E+10  -5.064303108979736E-1    8.013444878008897E-1
 1.214000000000000E+10  -4.028932189826636E-1    8.570613384938529E-1
 1.215000000000000E+10  -2.932365991680478E-1    8.999910541667675E-1
 1.216000000000000E+10  -1.800026403487358E-1    9.292772692708068E-1
 1.217000000000000E+10  -6.504908644401738E-2    9.438291297381310E-1
 1.218000000000000E+10   5.015300095684361E-2    9.434813352223178E-1
 1.219000000000000E+10   1.639279588373489E-1    9.276816001792402E-1
 1.220000000000000E+10   2.748700354021459E-1    8.972575481943450E-1
 1.221000000000000E+10   3.813398312635013E-1    8.530074779514594E-1
 1.222000000000000E+10   4.816714989856567E-1    7.958944262071137E-1
 1.223000000000000E+10   5.746594727597282E-1    7.279838994001360E-1
 1.224000000000000E+10   6.587102408641520E-1    6.506188823794208E-1
 1.225000000000000E+10   7.319280087114906E-1    5.659943325868444E-1
 1.226000000000000E+10   7.933845657858563E-1    4.757493693962888E-1
 1.227000000000000E+10   8.428723555398000E-1    3.814947464416269E-1
 1.228000000000000E+10   8.796858389008052E-1    2.840838468165003E-1
 1.229000000000000E+10   9.039000095981669E-1    1.844052413260758E-1
 1.230000000000000E+10   9.160038225675665E-1    8.339539878299279E-2
 1.231000000000000E+10   9.163191754823595E-1   -1.817749298088439E-2
 1.232000000000000E+10   9.054016428938588E-1   -1.189684624798256E-1
 1.233000000000000E+10   8.843189465498462E-1   -2.176710410705876E-1
 1.234000000000000E+10   8.539178814584399E-1   -3.125772300494143E-1
 1.235000000000000E+10   8.151888633401306E-1   -4.024929418151480E-1
 1.236000000000000E+10   7.691463739165846E-1   -4.857227498170705E-1
 1.237000000000000E+10   7.167822723118351E-1   -5.616966225009863E-1
 1.238000000000000E+10   6.582691455103417E-1   -6.297050377578852E-1
 1.239000000000000E+10   5.944106757015222E-1   -6.898920012380834E-1
 1.240000000000000E+10   5.252995711812077E-1   -7.421186481717571E-1
 1.241000000000000E+10   4.513543575290260E-1   -7.868435956286401E-1
 1.242000000000000E+10   3.731863023726238E-1   -8.245916133625273E-1
 1.243000000000000E+10   2.917774997629215E-1   -8.552971164986340E-1
 1.244000000000000E+10   2.083927576776898E-1   -8.786976086973787E-1
 1.245000000000000E+10   1.242193742117501E-1   -8.950122381968471E-1
 1.246000000000000E+10   4.023984724308809E-2   -9.043308988664110E-1
 1.247000000000000E+10  -4.222017350406263E-2   -9.058591890985158E-1
 1.248000000000000E+10  -1.226828646572624E-1   -9.001051641177987E-1
 1.249000000000000E+10  -2.010599492579785E-1   -8.868747811859846E-1
 1.250000000000000E+10  -2.770171285890889E-1   -8.662469693982618E-1
