#  HZ   S   RI   R     50.00 
! Rohde & Schwarz Vector Network Analyzer 
! Rohde-Schwarz,ZNA43-4Port,1332450044101932,2.92
! Created: UTC 6/1/2026, 11:34:51 AM
! freq[Hz]                re:S11                  im:S11
 8.000000000000000E9    -5.790958685437905E-2    9.747367123779807E-1
 8.010000000000000E9     2.328928715650217E-2    9.779123053313713E-1
 8.020000000000000E9     1.029936052950631E-1    9.740712864886308E-1
 8.030000000000000E9     1.813994962971103E-1    9.633118638933846E-1
 8.040000000000000E9     2.587804041517723E-1    9.453858408037897E-1
 8.050000000000000E9     3.349644003236027E-1    9.206215565961932E-1
 8.060000000000000E9     4.092884009931639E-1    8.888417392496069E-1
 8.070000000000000E9     4.817203480917662E-1    8.508699883440437E-1
 8.080000000000000E9     5.514808958654419E-1    8.070333720386154E-1
 8.090000000000000E9     6.178776981434471E-1    7.577198425396853E-1
 8.100000000000000E9     6.805826495684496E-1    7.027482135576120E-1
 8.110000000000000E9     7.388962884876361E-1    6.424810993271343E-1
 8.120000000000000E9     7.920720533352245E-1    5.769647382167552E-1
 8.130000000000000E9     8.395993660911014E-1    5.053491752827939E-1
 8.140000000000000E9     8.809759889367504E-1    4.277526458325352E-1
 8.150000000000000E9     9.155833121483299E-1    3.436931514480098E-1
 8.160000000000000E9     9.427424223740750E-1    2.540616856629726E-1
 8.170000000000000E9     9.618489396383373E-1    1.588678055804465E-1
 8.180000000000000E9     9.720057834023073E-1    5.932808014731168E-2
 8.190000000000000E9     9.727274880138426E-1   -4.373815898279846E-2
 8.200000000000000E9     9.624774615096829E-1   -1.488197929123248E-1
 8.210000000000000E9     9.405838181217854E-1   -2.553736373061604E-1
 8.220000000000000E9     9.052528592174911E-1   -3.617407867553002E-1
 8.230000000000000E9     8.555764244012511E-1   -4.664422633011751E-1
 8.240000000000000E9     7.899951401515104E-1   -5.678565837881555E-1
 8.250000000000000E9     7.081565125663785E-1   -6.641198709585381E-1
 8.260000000000000E9     6.095027149528648E-1   -7.524584059685531E-1
 8.270000000000000E9     4.946858627489328E-1   -8.296885615557452E-1
 8.280000000000000E9     3.653053405819105E-1   -8.924729554788194E-1
 8.290000000000000E9     2.236321236891624E-1   -9.372216676174322E-1
 8.300000000000000E9     7.346579266774320E-2   -9.608893901609844E-1
 8.310000000000000E9    -8.204071916957689E-2   -9.608471608387454E-1
 8.320000000000000E9    -2.385243133416925E-1   -9.347514837863830E-1
 8.330000000000000E9    -3.913445064044959E-1   -8.812420865481040E-1
 8.340000000000000E9    -5.355576095677900E-1   -8.000541912497715E-1
 8.350000000000000E9    -6.658087219907589E-1   -6.925385355114096E-1
 8.360000000000000E9    -7.766812242720763E-1   -5.618321507580607E-1
 8.370000000000000E9    -8.637976887922451E-1   -4.128743193062674E-1
 8.380000000000000E9    -9.238269321725544E-1   -2.515567705289468E-1
 8.390000000000000E9    -9.550113304155372E-1   -8.464436048138869E-2
 8.400000000000000E9    -9.573623648765390E-1    8.154154148400222E-2
 8.410000000000000E9    -9.318533411874104E-1    2.415481433301553E-1
 8.420000000000000E9    -8.807556880572447E-1    3.909719278250597E-1
 8.430000000000000E9    -8.072166813313173E-1    5.267031763899573E-1
 8.440000000000000E9    -7.144334327085047E-1    6.460722603714315E-1
 8.450000000000000E9    -6.061510868209143E-1    7.476316433681254E-1
 8.460000000000000E9    -4.862382996729812E-1    8.302707608543568E-1
 8.470000000000000E9    -3.592580391200283E-1    8.934600066725401E-1
 8.480000000000000E9    -2.287964187511175E-1    9.372061923456071E-1
 8.490000000000000E9    -9.847735278498169E-2    9.620496683173740E-1
 8.500000000000000E9     2.854175935338173E-2    9.691298016803844E-1
 8.510000000000000E9     1.516159412901788E-1    9.596145502577310E-1
 8.520000000000000E9     2.690054498684767E-1    9.347996895591197E-1
 8.530000000000000E9     3.799683558162217E-1    8.953085475626859E-1
 8.540000000000000E9     4.838543432687635E-1    8.425143420377376E-1
 8.550000000000000E9     5.798737535642384E-1    7.779672765466007E-1
 8.560000000000000E9     6.676610395548669E-1    7.027932527176025E-1
 8.570000000000000E9     7.459226195409229E-1    6.188088222242459E-1
 8.580000000000000E9     8.140106084582275E-1    5.277587285892641E-1
 8.590000000000000E9     8.707527687533284E-1    4.312031822904265E-1
 8.600000000000000E9     9.156764300276888E-1    3.304526679817713E-1
 8.610000000000000E9     9.481484566405396E-1    2.267847757308177E-1
 8.620000000000000E9     9.679908917978765E-1    1.208859832610187E-1
 8.630000000000000E9     9.749952579710661E-1    1.325072939444954E-2
 8.640000000000000E9     9.690264554850080E-1   -9.506491158139577E-2
 8.650000000000000E9     9.503207253479261E-1   -2.030986827055999E-1
 8.660000000000000E9     9.194663136779720E-1   -3.098189893045100E-1
 8.670000000000000E9     8.766715733183920E-1   -4.136451117376632E-1
 8.680000000000000E9     8.226407053046835E-1   -5.126061144988677E-1
 8.690000000000000E9     7.580608754817419E-1   -6.051327603012407E-1
 8.700000000000000E9     6.837501154840119E-1   -6.896445271374648E-1
 8.710000000000000E9     6.000573082671072E-1   -7.643178427627053E-1
 8.720000000000000E9     5.081240553568890E-1   -8.287017832527307E-1
 8.730000000000000E9     4.080675879031486E-1   -8.815806523515963E-1
 8.740000000000000E9     3.010758451588856E-1   -9.220297091792099E-1
 8.750000000000000E9     1.882260956366133E-1   -9.497198017660948E-1
 8.760000000000000E9     7.164033073652885E-2   -9.640251479175959E-1
 8.770000000000000E9    -4.699708740881662E-2   -9.646912398804732E-1
 8.780000000000000E9    -1.649159748616685E-1   -9.516826883676260E-1
 8.790000000000000E9    -2.798977095292572E-1   -9.253151462570394E-1
 8.800000000000000E9    -3.901641784577142E-1   -8.858408052955404E-1
 8.810000000000000E9    -4.935473674865216E-1   -8.338628335890557E-1
 8.820000000000000E9    -5.888389681624224E-1   -7.698860856981389E-1
 8.830000000000000E9    -6.750156669869578E-1   -6.946343453853714E-1
 8.840000000000000E9    -7.512632693785093E-1   -6.094580412055394E-1
 8.850000000000000E9    -8.169035718908294E-1   -5.156443938639929E-1
 8.860000000000000E9    -8.715189082884024E-1   -4.145821009681152E-1
 8.870000000000000E9    -9.142071442390538E-1   -3.082900850789330E-1
 8.880000000000000E9    -9.446179006577036E-1   -1.988153773120364E-1
 8.890000000000000E9    -9.626261234047905E-1   -8.857112206805096E-2
 8.900000000000000E9    -9.680542878622380E-1    2.097635921698454E-2
 8.910000000000000E9    -9.611776417856457E-1    1.278462535939224E-1
 8.920000000000000E9    -9.424701366067310E-1    2.312712947277830E-1
 8.930000000000000E9    -9.124014696001781E-1    3.305160625264373E-1
 8.940000000000000E9    -8.716161550487639E-1    4.250567691505645E-1
 8.950000000000000E9    -8.211315691026364E-1    5.141450838336357E-1
 8.960000000000000E9    -7.618465825239767E-1    5.972812195165906E-1
 8.970000000000000E9    -6.948049742677622E-1    6.738420186078925E-1
 8.980000000000000E9    -6.212764731841119E-1    7.429859073335737E-1
 8.990000000000000E9    -5.426463947297844E-1    8.038109897075579E-1
 9.000000000000000E9    -4.598508971185890E-1    8.558349500565220E-1
 9.010000000000000E9    -3.742276339933394E-1    8.984452352729929E-1
 9.020000000000000E9    -2.861057980202785E-1    9.313218536280541E-1
 9.030000000000000E9    -1.959940733130682E-1    9.547031749374274E-1
 9.040000000000000E9    -1.042219410097390E-1    9.687356072121963E-1
 9.050000000000000E9    -1.118005154545716E-2    9.734481612636701E-1
 9.060000000000000E9     8.264831825025669E-2    9.689685412799348E-1
 9.070000000000000E9     1.764767471411414E-1    9.557900059627519E-1
 9.080000000000000E9     2.696780035452209E-1    9.339946859400478E-1
 9.090000000000000E9     3.607845833606863E-1    9.035334826077305E-1
 9.100000000000000E9     4.486337025749937E-1    8.645841729700160E-1
 9.110000000000000E9     5.320399960020787E-1    8.175175073624933E-1
 9.120000000000000E9     6.101121449514257E-1    7.620957089118456E-1
 9.130000000000000E9     6.819743534943119E-1    6.986509703268117E-1
 9.140000000000000E9     7.474198818465526E-1    6.273789658813158E-1
 9.150000000000000E9     8.056888268162500E-1    5.484588467074816E-1
 9.160000000000000E9     8.567919597330705E-1    4.615880406514291E-1
 9.170000000000000E9     8.996378135175078E-1    3.672655892430620E-1
 9.180000000000000E9     9.337546869632356E-1    2.660767290855632E-1
 9.190000000000000E9     9.574784620615567E-1    1.588164554618846E-1
 9.200000000000000E9     9.691352676504467E-1    4.647134798214263E-2
 9.210000000000000E9     9.677583600134835E-1   -6.861223891624020E-2
 9.220000000000000E9     9.518362989141044E-1   -1.848739133890401E-1
 9.230000000000000E9     9.204953790675635E-1   -3.010659686644760E-1
 9.240000000000000E9     8.730832830421293E-1   -4.144089077671206E-1
 9.250000000000000E9     8.093914333345903E-1   -5.236148258932801E-1
 9.260000000000000E9     7.291555257196809E-1   -6.263387312530599E-1
 9.270000000000000E9     6.326662753823370E-1   -7.201020176321377E-1
 9.280000000000000E9     5.205557956989280E-1   -8.021895740569539E-1
 9.290000000000000E9     3.942153830687171E-1   -8.693832422205653E-1
 9.300000000000000E9     2.558922637753440E-1   -9.181122148449542E-1
 9.310000000000000E9     1.092655061233990E-1   -9.454739583690891E-1
 9.320000000000000E9    -4.192186495919382E-2   -9.488217619269657E-1
 9.330000000000000E9    -1.927573974473025E-1   -9.277526151012109E-1
 9.340000000000000E9    -3.385516685155018E-1   -8.818759343402454E-1
 9.350000000000000E9    -4.749255073923044E-1   -8.131707018359601E-1
 9.360000000000000E9    -5.984678818802618E-1   -7.237906103430578E-1
 9.370000000000000E9    -7.060449677320343E-1   -6.164671986531576E-1
 9.380000000000000E9    -7.948848053652738E-1   -4.948371033724732E-1
 9.390000000000000E9    -8.629561248914992E-1   -3.625306710200660E-1
 9.400000000000000E9    -9.087855756070384E-1   -2.241420789037435E-1
 9.410000000000000E9    -9.326896417961010E-1   -8.382590299133366E-2
 9.420000000000000E9    -9.349806603541794E-1    5.423167273578205E-2
 9.430000000000000E9    -9.178826189334145E-1    1.863310572083762E-1
 9.440000000000000E9    -8.839761356600160E-1    3.098175600171690E-1
 9.450000000000000E9    -8.359890274409921E-1    4.233549793897811E-1
 9.460000000000000E9    -7.766183208951708E-1    5.262069062349716E-1
 9.470000000000000E9    -7.078828746464215E-1    6.173174150727789E-1
 9.480000000000000E9    -6.314695260479829E-1    6.970307232294849E-1
 9.490000000000000E9    -5.495703427567444E-1    7.652976653680631E-1
 9.500000000000000E9    -4.628313967404689E-1    8.217191708394924E-1
 9.510000000000000E9    -3.738887308120102E-1    8.671807424061260E-1
 9.520000000000000E9    -2.836013668239728E-1    9.017589154480311E-1
 9.530000000000000E9    -1.933832084826382E-1    9.256651281658660E-1
 9.540000000000000E9    -1.042189849463863E-1    9.402451915665963E-1
 9.550000000000000E9    -1.712217657486848E-2    9.464173210748537E-1
 9.560000000000000E9     6.723573051102394E-2    9.451922481854378E-1
 9.570000000000000E9     1.485537296122796E-1    9.371110336951501E-1
 9.580000000000000E9     2.268281408144125E-1    9.229619891122900E-1
 9.590000000000000E9     3.017806072276796E-1    9.027571467866031E-1
 9.600000000000000E9     3.733032690751283E-1    8.769927007249212E-1
 9.610000000000000E9     4.413271961873648E-1    8.458075882270034E-1
 9.620000000000000E9     5.055850497612315E-1    8.095208061774378E-1
 9.630000000000000E9     5.657891476454141E-1    7.685372254179048E-1
 9.640000000000000E9     6.218672210325542E-1    7.235763942933110E-1
 9.650000000000000E9     6.736087474541999E-1    6.753523438435878E-1
 9.660000000000000E9     7.212077366184610E-1    6.244177961933002E-1
 9.670000000000000E9     7.647967237973414E-1    5.711889761915842E-1
 9.680000000000000E9     8.043015495293478E-1    5.158778696062154E-1
 9.690000000000000E9     8.394796155970778E-1    4.585695436869266E-1
 9.700000000000000E9     8.703051682470969E-1    3.990662962526846E-1
 9.710000000000000E9     8.967196334421136E-1    3.375262556355393E-1
 9.720000000000000E9     9.183689517441308E-1    2.738088171313822E-1
 9.730000000000000E9     9.351024375319650E-1    2.082873368789713E-1
 9.740000000000000E9     9.470721416460842E-1    1.412346631881954E-1
 9.750000000000000E9     9.541923411897502E-1    7.293201368093849E-2
 9.760000000000000E9     9.565226692812693E-1    3.879353649624942E-3
 9.770000000000000E9     9.541533764155556E-1   -6.531834561117224E-2
 9.780000000000000E9     9.472832566341347E-1   -1.346608124656213E-1
 9.790000000000000E9     9.355098395897067E-1   -2.037964657722270E-1
 9.800000000000000E9     9.185478897252382E-1   -2.725970703654859E-1
 9.810000000000000E9     8.960152358072406E-1   -3.412542380831708E-1
 9.820000000000000E9     8.671838437786055E-1   -4.094765802980546E-1
 9.830000000000000E9     8.317747969489906E-1   -4.769461372849354E-1
 9.840000000000000E9     7.893844079275133E-1   -5.431841386396841E-1
 9.850000000000000E9     7.398240380540787E-1   -6.076006531084244E-1
 9.860000000000000E9     6.835333765485261E-1   -6.694976386410304E-1
 9.870000000000000E9     6.207814082464866E-1   -7.279853803248967E-1
 9.880000000000000E9     5.515744234435220E-1   -7.821908209090239E-1
 9.890000000000000E9     4.760841472793917E-1   -8.314323353842401E-1
 9.900000000000000E9     3.940900893333132E-1   -8.745982662047914E-1
 9.910000000000000E9     3.052705326074615E-1   -9.105566466153731E-1
 9.920000000000000E9     2.092967456324588E-1   -9.377658569121191E-1
 9.930000000000000E9     1.060920754156307E-1   -9.549469668806638E-1
 9.940000000000000E9    -3.342045989390138E-3   -9.600838873253874E-1
 9.950000000000000E9    -1.182596576735314E-1   -9.519167368271502E-1
 9.960000000000000E9    -2.368910060876133E-1   -9.287662225270603E-1
 9.970000000000000E9    -3.562321669377728E-1   -8.896661586755368E-1
 9.980000000000000E9    -4.736328293812663E-1   -8.337070462737056E-1
 9.990000000000000E9    -5.857078953648059E-1   -7.606747701101182E-1
 1.000000000000000E+10  -6.888262043957872E-1   -6.703371483625366E-1
 1.001000000000000E+10  -7.812207632159347E-1   -5.622845841082666E-1
 1.002000000000000E+10  -8.572950871982482E-1   -4.379824329769379E-1
 1.003000000000000E+10  -9.140607665749397E-1   -2.989680867296197E-1
 1.004000000000000E+10  -9.483984324671777E-1   -1.483447507000008E-1
 1.005000000000000E+10  -9.576159935632262E-1    9.127179729372941E-3
 1.006000000000000E+10  -9.408683773115675E-1    1.674508932284273E-1
 1.007000000000000E+10  -8.990240954371429E-1    3.211708840075572E-1
 1.008000000000000E+10  -8.339864677153142E-1    4.641968319347425E-1
 1.009000000000000E+10  -7.489361417693851E-1    5.923904256658489E-1
 1.010000000000000E+10  -6.473879429851915E-1    7.027168725272670E-1
 1.011000000000000E+10  -5.328871883136940E-1    7.931701931292064E-1
 1.012000000000000E+10  -4.084362963764827E-1    8.629875004436646E-1
 1.013000000000000E+10  -2.777316301041846E-1    9.118611933323051E-1
 1.014000000000000E+10  -1.446958576760345E-1    9.402424975907508E-1
 1.015000000000000E+10  -1.238809118301889E-2    9.497773034244206E-1
 1.016000000000000E+10   1.158963986344489E-1    9.419455695231523E-1
 1.017000000000000E+10   2.369513392815327E-1    9.193750328332433E-1
 1.018000000000000E+10   3.491390969439504E-1    8.842614902630712E-1
 1.019000000000000E+10   4.510866158265008E-1    8.388175548017712E-1
 1.020000000000000E+10   5.419549617476560E-1    7.848574214225820E-1
 1.021000000000000E+10   6.225798339191699E-1    7.236399474111090E-1
 1.022000000000000E+10   6.932825841608299E-1    6.562552094706060E-1
 1.023000000000000E+10   7.549656277660237E-1    5.832299861741822E-1
 1.024000000000000E+10   8.074655089941419E-1    5.051979720901771E-1
 1.025000000000000E+10   8.520031612283954E-1    4.237223638551099E-1
 1.026000000000000E+10   8.882086643268639E-1    3.399062629913508E-1
 1.027000000000000E+10   9.166440690389368E-1    2.553195437274896E-1
 1.028000000000000E+10   9.373082624727570E-1    1.714607110463071E-1
 1.029000000000000E+10   9.506446769053837E-1    8.975134324013408E-2
 1.030000000000000E+10   9.568238839642916E-1    1.053706542059767E-2
 1.031000000000000E+10   9.558668187675133E-1   -6.623308498857218E-2
 1.032000000000000E+10   9.484223226508328E-1   -1.405906082274766E-1
 1.033000000000000E+10   9.340721169019218E-1   -2.130142593631764E-1
 1.034000000000000E+10   9.136483863050027E-1   -2.837827872528141E-1
 1.035000000000000E+10   8.872902559510387E-1   -3.528239240613582E-1
 1.036000000000000E+10   8.555288825427418E-1   -4.206769724747522E-1
 1.037000000000000E+10   8.188545167754153E-1   -4.863385485218129E-1
 1.038000000000000E+10   7.781694394713817E-1   -5.493325995981874E-1
 1.039000000000000E+10   7.339341147521472E-1   -6.085403970014676E-1
 1.040000000000000E+10   6.864667136190639E-1   -6.635400664686949E-1
 1.041000000000000E+10   6.362480177782767E-1   -7.138620997208323E-1
 1.042000000000000E+10   5.827681552428329E-1   -7.590042733866895E-1
 1.043000000000000E+10   5.260514356262035E-1   -7.990404305697995E-1
 1.044000000000000E+10   4.655056017997817E-1   -8.344127171583295E-1
 1.045000000000000E+10   4.011071850086530E-1   -8.650148279963725E-1
 1.046000000000000E+10   3.326750473297758E-1   -8.909590941718752E-1
 1.047000000000000E+10   2.607876557065860E-1   -9.123294712173231E-1
 1.048000000000000E+10   1.861314031194593E-1   -9.290992059258523E-1
 1.049000000000000E+10   1.097112398200525E-1   -9.406334792310598E-1
 1.050000000000000E+10   3.262580556628172E-2   -9.466583918255383E-1
 1.051000000000000E+10  -4.444102655277260E-2   -9.470335349482005E-1
 1.052000000000000E+10  -1.207798205423454E-1   -9.409747187183878E-1
 1.053000000000000E+10  -1.963802066124706E-1   -9.281393398393389E-1
 1.054000000000000E+10  -2.712492232447750E-1   -9.080846030676962E-1
 1.055000000000000E+10  -3.456349102412342E-1   -8.805754327023183E-1
 1.056000000000000E+10  -4.195153005930737E-1   -8.450391016513086E-1
 1.057000000000000E+10  -4.924611255095884E-1   -8.018634572412722E-1
 1.058000000000000E+10  -5.637991906178670E-1   -7.509733298055145E-1
 1.059000000000000E+10  -6.322473562543571E-1   -6.925947276468817E-1
 1.060000000000000E+10  -6.965240240413048E-1   -6.276658623040359E-1
 1.061000000000000E+10  -7.553996840318498E-1   -5.563046502589781E-1
 1.062000000000000E+10  -8.072508064949871E-1   -4.794845994678034E-1
 1.063000000000000E+10  -8.511845017097830E-1   -3.969692441716198E-1
 1.064000000000000E+10  -8.860578116828952E-1   -3.092689838321611E-1
 1.065000000000000E+10  -9.115588746493481E-1   -2.164118173382195E-1
 1.066000000000000E+10  -9.272457353519158E-1   -1.185484152237539E-1
 1.067000000000000E+10  -9.322778853138531E-1   -1.606813598605436E-2
 1.068000000000000E+10  -9.262557097154064E-1    8.997835225010661E-2
 1.069000000000000E+10  -9.084998464030235E-1    1.978954256816124E-1
 1.070000000000000E+10  -8.787086510234913E-1    3.054344902894819E-1
 1.071000000000000E+10  -8.370486045835186E-1    4.098189386531477E-1
 1.072000000000000E+10  -7.833021465440394E-1    5.086469960615875E-1
 1.073000000000000E+10  -7.182987017107805E-1    6.000273354461982E-1
 1.074000000000000E+10  -6.421737257139440E-1    6.823481264921220E-1
 1.075000000000000E+10  -5.558522215449728E-1    7.546689528323156E-1
 1.076000000000000E+10  -4.598117244229444E-1    8.159189223564114E-1
 1.077000000000000E+10  -3.550293749927321E-1    8.658757764780733E-1
 1.078000000000000E+10  -2.426976875531576E-1    9.033718344507455E-1
 1.079000000000000E+10  -1.249716335704828E-1    9.277032181548698E-1
 1.080000000000000E+10  -4.515948682891065E-3    9.381838778371855E-1
 1.081000000000000E+10   1.157942038813612E-1    9.342508919417570E-1
 1.082000000000000E+10   2.334789013214888E-1    9.160205863711309E-1
 1.083000000000000E+10   3.456465768168081E-1    8.838774349969045E-1
 1.084000000000000E+10   4.510401054414002E-1    8.384709255167128E-1
 1.085000000000000E+10   5.482072660628319E-1    7.807317028303640E-1
 1.086000000000000E+10   6.366218880755246E-1    7.118483783541212E-1
 1.087000000000000E+10   7.161720279709088E-1    6.328406054402930E-1
 1.088000000000000E+10   7.857105317989392E-1    5.448132913062101E-1
 1.089000000000000E+10   8.454078267389153E-1    4.495239294562188E-1
 1.090000000000000E+10   8.939557563078303E-1    3.484199175514470E-1
 1.091000000000000E+10   9.309445971409884E-1    2.436289925513544E-1
 1.092000000000000E+10   9.554806466927585E-1    1.373174368161192E-1
 1.093000000000000E+10   9.675548074737215E-1    3.183036378776449E-2
 1.094000000000000E+10   9.677232413725038E-1   -7.191721497015495E-2
 1.095000000000000E+10   9.565343356453022E-1   -1.725753847868810E-1
 1.096000000000000E+10   9.340685368368991E-1   -2.701262779303200E-1
 1.097000000000000E+10   9.020344253164095E-1   -3.643011021705869E-1
 1.098000000000000E+10   8.601823973129457E-1   -4.545230153399707E-1
 1.099000000000000E+10   8.094941701253739E-1   -5.405219098310909E-1
 1.100000000000000E+10   7.506744045892059E-1   -6.212734684780903E-1
 1.101000000000000E+10   6.846730134240029E-1   -6.955678395555356E-1
 1.102000000000000E+10   6.119592533472815E-1   -7.620394955144141E-1
 1.103000000000000E+10   5.342116004993008E-1   -8.199889580291332E-1
 1.104000000000000E+10   4.520453549619937E-1   -8.685460974383649E-1
 1.105000000000000E+10   3.670609604283037E-1   -9.075074208494388E-1
 1.106000000000000E+10   2.795020522563428E-1   -9.376007745777313E-1
 1.107000000000000E+10   1.899200904590143E-1   -9.586731817445453E-1
 1.108000000000000E+10   9.855727001526091E-2   -9.711331607360062E-1
 1.109000000000000E+10   5.653230209320967E-3   -9.750796997148894E-1
 1.110000000000000E+10  -8.786486632307389E-2   -9.709044571455822E-1
 1.111000000000000E+10  -1.813085391136211E-1   -9.581742598381442E-1
 1.112000000000000E+10  -2.732843744627599E-1   -9.363474852673022E-1
 1.113000000000000E+10  -3.625987223310372E-1   -9.056685369394815E-1
 1.114000000000000E+10  -4.480676065350677E-1   -8.660665588971740E-1
 1.115000000000000E+10  -5.283916271980600E-1   -8.182018660618501E-1
 1.116000000000000E+10  -6.030869658010881E-1   -7.623431131454327E-1
 1.117000000000000E+10  -6.715810477561590E-1   -6.992007155696497E-1
 1.118000000000000E+10  -7.342277777646915E-1   -6.297625734652553E-1
 1.119000000000000E+10  -7.902816015083287E-1   -5.543648661357905E-1
 1.120000000000000E+10  -8.395717568729216E-1   -4.731571202566544E-1
 1.121000000000000E+10  -8.814446965232875E-1   -3.870232674663293E-1
 1.122000000000000E+10  -9.150494074756184E-1   -2.969112810563912E-1
 1.123000000000000E+10  -9.394516170609241E-1   -2.036149844548854E-1
 1.124000000000000E+10  -9.537672048424991E-1   -1.085171301855515E-1
 1.125000000000000E+10  -9.582948021269618E-1   -1.260914442266115E-2
 1.126000000000000E+10  -9.523298506680694E-1    8.273865491689757E-2
 1.127000000000000E+10  -9.366526401526772E-1    1.766692493956580E-1
 1.128000000000000E+10  -9.113208270946864E-1    2.687606449318908E-1
 1.129000000000000E+10  -8.771248320664627E-1    3.582554201860286E-1
 1.130000000000000E+10  -8.339511835796373E-1    4.443202183031348E-1
 1.131000000000000E+10  -7.827165269485777E-1    5.260320839043601E-1
 1.132000000000000E+10  -7.235013498600787E-1    6.028235588538661E-1
 1.133000000000000E+10  -6.568433466863499E-1    6.732307454517152E-1
 1.134000000000000E+10  -5.834789687602071E-1    7.362295263444611E-1
 1.135000000000000E+10  -5.044443778949383E-1    7.908881834223329E-1
 1.136000000000000E+10  -4.203752270094779E-1    8.364671832532377E-1
 1.137000000000000E+10  -3.329890687623646E-1    8.728442316700259E-1
 1.138000000000000E+10  -2.430801062914870E-1    9.001821681128652E-1
 1.139000000000000E+10  -1.512895092317505E-1    9.184303482769525E-1
 1.140000000000000E+10  -5.858503142092027E-2    9.279372124072426E-1
 1.141000000000000E+10   3.428955914926813E-2    9.289742171731878E-1
 1.142000000000000E+10   1.266691138439683E-1    9.210416051711560E-1
 1.143000000000000E+10   2.175298638382021E-1    9.042453514111085E-1
 1.144000000000000E+10   3.060797901204585E-1    8.784453336436071E-1
 1.145000000000000E+10   3.911593951826299E-1    8.437702429486844E-1
 1.146000000000000E+10   4.716234918211225E-1    8.011579477619334E-1
 1.147000000000000E+10   5.469510601185302E-1    7.509753275335170E-1
 1.148000000000000E+10   6.169349816225793E-1    6.944022789577270E-1
 1.149000000000000E+10   6.808374496808040E-1    6.316084447116791E-1
 1.150000000000000E+10   7.387003601444434E-1    5.640244544566153E-1
 1.151000000000000E+10   7.902438591855314E-1    4.918243830569697E-1
 1.152000000000000E+10   8.345682361785972E-1    4.154929762784066E-1
 1.153000000000000E+10   8.715930924765527E-1    3.356740807943320E-1
 1.154000000000000E+10   9.009056538049521E-1    2.528064627868989E-1
 1.155000000000000E+10   9.219352867771882E-1    1.677951124665182E-1
 1.156000000000000E+10   9.344972171697382E-1    8.095459608294910E-2
 1.157000000000000E+10   9.383814783489003E-1   -6.279362862482872E-3
 1.158000000000000E+10   9.341890474033180E-1   -9.303242792605294E-2
 1.159000000000000E+10   9.218951780444503E-1   -1.786513394831486E-1
 1.160000000000000E+10   9.026731391299693E-1   -2.624541250681892E-1
 1.161000000000000E+10   8.763307110563306E-1   -3.437227697666109E-1
 1.162000000000000E+10   8.432242370628733E-1   -4.222852790151624E-1
 1.163000000000000E+10   8.033530058620024E-1   -4.975490601207241E-1
 1.164000000000000E+10   7.565043838712401E-1   -5.688883526045246E-1
 1.165000000000000E+10   7.030300699323916E-1   -6.357838898800687E-1
 1.166000000000000E+10   6.426771447520263E-1   -6.973953036845294E-1
 1.167000000000000E+10   5.762828180332696E-1   -7.530732091239243E-1
 1.168000000000000E+10   5.045335188556369E-1   -8.024912680171287E-1
 1.169000000000000E+10   4.283516084927221E-1   -8.455578869378391E-1
 1.170000000000000E+10   3.486901747032262E-1   -8.818378265471711E-1
 1.171000000000000E+10   2.660164693947276E-1   -9.111627866885410E-1
 1.172000000000000E+10   1.814049428973929E-1   -9.329622883320728E-1
 1.173000000000000E+10   9.531064025842530E-2   -9.472448137823033E-1
 1.174000000000000E+10   8.127993220383345E-3   -9.534908490383364E-1
 1.175000000000000E+10  -7.971689722943830E-2   -9.510769866973257E-1
 1.176000000000000E+10  -1.679647860213749E-1   -9.400179491748423E-1
 1.177000000000000E+10  -2.558215055608715E-1   -9.198343379078598E-1
 1.178000000000000E+10  -3.426882462461892E-1   -8.907523621891793E-1
 1.179000000000000E+10  -4.274679297389140E-1   -8.525632949778945E-1
 1.180000000000000E+10  -5.094367341050281E-1   -8.059660250566102E-1
 1.181000000000000E+10  -5.873948864902334E-1   -7.515200636264228E-1
 1.182000000000000E+10  -6.600523987597221E-1   -6.898383250603149E-1
 1.183000000000000E+10  -7.272732578073338E-1   -6.209168479922956E-1
 1.184000000000000E+10  -7.871789065756380E-1   -5.448070974717003E-1
 1.185000000000000E+10  -8.389448862175921E-1   -4.622216073765482E-1
 1.186000000000000E+10  -8.821419175283106E-1   -3.731197591720699E-1
 1.187000000000000E+10  -9.156064035168322E-1   -2.785305823572775E-1
 1.188000000000000E+10  -9.389025582158104E-1   -1.792315011729628E-1
 1.189000000000000E+10  -9.515017651542199E-1   -7.671032729430380E-2
 1.190000000000000E+10  -9.534280954019572E-1    2.736183496907750E-2
 1.191000000000000E+10  -9.448516694083935E-1    1.321927522493835E-1
 1.192000000000000E+10  -9.249452747703995E-1    2.361844721684474E-1
 1.193000000000000E+10  -8.936637292325980E-1    3.373505955005855E-1
 1.194000000000000E+10  -8.512986179409283E-1    4.346290344292748E-1
 1.195000000000000E+10  -7.974311972542096E-1    5.264673766257413E-1
 1.196000000000000E+10  -7.321915145091756E-1    6.120149645230657E-1
 1.197000000000000E+10  -6.556776229963772E-1    6.895157166185014E-1
 1.198000000000000E+10  -5.698340108652010E-1    7.587503742205790E-1
 1.199000000000000E+10  -4.754303421423653E-1    8.176395008696944E-1
 1.200000000000000E+10  -3.741889118855975E-1    8.659587824762626E-1
 1.201000000000000E+10  -2.688185846920804E-1    9.028641960030633E-1
 1.202000000000000E+10  -1.605601033349805E-1    9.274971195302006E-1
 1.203000000000000E+10  -5.192926605408930E-2    9.399311879648637E-1
 1.204000000000000E+10   5.547712270472806E-2    9.400276570979537E-1
 1.205000000000000E+10   1.604776210665461E-1    9.278159942753359E-1
 1.206000000000000E+10   2.621611429154632E-1    9.031092255483673E-1
 1.207000000000000E+10   3.599712460492002E-1    8.666642665379749E-1
 1.208000000000000E+10   4.527487929695045E-1    8.188553655404410E-1
 1.209000000000000E+10   5.395249752585104E-1    7.607288393711447E-1
 1.210000000000000E+10   6.193701239379694E-1    6.938155113289638E-1
 1.211000000000000E+10   6.911658332730669E-1    6.196852216897594E-1
 1.212000000000000E+10   7.543517179665730E-1    5.397165652378271E-1
 1.213000000000000E+10   8.078507148751876E-1    4.557749823710279E-1
 1.214000000000000E+10   8.516003428270824E-1    3.685185419607130E-1
 1.215000000000000E+10   8.848805409547700E-1    2.792193859310205E-1
 1.216000000000000E+10   9.078600813698090E-1    1.881668994193277E-1
 1.217000000000000E+10   9.206356790600733E-1    9.642458940576810E-2
 1.218000000000000E+10   9.236931498111264E-1    4.264622742663241E-3
 1.219000000000000E+10   9.174855690678299E-1   -8.727365638571820E-2
 1.220000000000000E+10   9.028218501411146E-1   -1.775033224518136E-1
 1.221000000000000E+10   8.801946786921288E-1   -2.653731109635123E-1
 1.222000000000000E+10   8.507054044836205E-1   -3.497622870647915E-1
 1.223000000000000E+10   8.147352388857962E-1   -4.294600847552878E-1
 1.224000000000000E+10   7.726373184602031E-1   -5.035188518434063E-1
 1.225000000000000E+10   7.251317340317436E-1   -5.717619934774240E-1
 1.226000000000000E+10   6.723388365681346E-1   -6.336756784916320E-1
 1.227000000000000E+10   6.137247862125521E-1   -6.897211649622775E-1
 1.228000000000000E+10   5.501386304577032E-1   -7.396415460761365E-1
 1.229000000000000E+10   4.818098904658062E-1   -7.836880416006866E-1
 1.230000000000000E+10   4.094412030562308E-1   -8.220307403775662E-1
 1.231000000000000E+10   3.337177142576934E-1   -8.548110565647090E-1
 1.232000000000000E+10   2.562222954231412E-1   -8.815008366196327E-1
 1.233000000000000E+10   1.775989994400833E-1   -9.019452846720163E-1
 1.234000000000000E+10   9.954595735388064E-2   -9.160180688240884E-1
 1.235000000000000E+10   2.206960007441081E-2   -9.235738402956659E-1
 1.236000000000000E+10  -5.375199115103189E-2   -9.240258673736346E-1
 1.237000000000000E+10  -1.284037453457006E-1   -9.179477055311694E-1
 1.238000000000000E+10  -2.017808650384489E-1   -9.044284816778710E-1
 1.239000000000000E+10  -2.744404223575411E-1   -8.844372487188977E-1
 1.240000000000000E+10  -3.458831712036692E-1   -8.576670763127690E-1
 1.241000000000000E+10  -4.163471144012882E-1   -8.247543039983318E-1
 1.242000000000000E+10  -4.852436437723952E-1   -7.861234201247640E-1
 1.243000000000000E+10  -5.516689734710795E-1   -7.423660163294501E-1
 1.244000000000000E+10  -6.142464121324935E-1   -6.942467983562715E-1
 1.245000000000000E+10  -6.723521705478549E-1   -6.418654973069485E-1
 1.246000000000000E+10  -7.256362327797035E-1   -5.854685462539481E-1
 1.247000000000000E+10  -7.728151726833383E-1   -5.253012946613221E-1
 1.248000000000000E+10  -8.142047356099843E-1   -4.612146492182645E-1
 1.249000000000000E+10  -8.498586829748460E-1   -3.928207568657593E-1
 1.250000000000000E+10  -8.794730694167142E-1   -3.202553669439859E-1
