#  HZ   S   RI   R     50.00 
! Rohde & Schwarz Vector Network Analyzer 
! Rohde-Schwarz,ZNA43-4Port,1332450044101932,2.92
! Created: UTC 6/1/2026, 11:35:08 AM
! freq[Hz]                re:S11                  im:S11
 8.000000000000000E9    -7.352293174437191E-1    6.270738681734421E-1
 8.010000000000000E9    -6.543369459842959E-1    7.148974921077524E-1
 8.020000000000000E9    -5.693863289612392E-1    7.876800753056592E-1
 8.030000000000000E9    -4.819209956920757E-1    8.466856790319420E-1
 8.040000000000000E9    -3.923931377078162E-1    8.932750754933934E-1
 8.050000000000000E9    -3.017318560425428E-1    9.285499820871559E-1
 8.060000000000000E9    -2.103916794259795E-1    9.528614654083402E-1
 8.070000000000000E9    -1.191138691690237E-1    9.678520620371711E-1
 8.080000000000000E9    -2.876480521275184E-2    9.742815102530703E-1
 8.090000000000000E9     5.984170175558556E-2    9.726566693133009E-1
 8.100000000000000E9     1.465417065035118E-1    9.639465045846911E-1
 8.110000000000000E9     2.302935962503150E-1    9.488267971779705E-1
 8.120000000000000E9     3.104743586137720E-1    9.271977266340945E-1
 8.130000000000000E9     3.873079994379017E-1    8.990797671068345E-1
 8.140000000000000E9     4.604916513400924E-1    8.646465454143027E-1
 8.150000000000000E9     5.302917932905792E-1    8.236296984251086E-1
 8.160000000000000E9     5.961965219470797E-1    7.763873334129050E-1
 8.170000000000000E9     6.584117513768059E-1    7.228607888802377E-1
 8.180000000000000E9     7.164840838241449E-1    6.635704355609889E-1
 8.190000000000000E9     7.704030970746871E-1    5.992717936015005E-1
 8.200000000000000E9     8.191025623628365E-1    5.303667887535579E-1
 8.210000000000000E9     8.627335924659409E-1    4.575222205676900E-1
 8.220000000000000E9     9.001996767354764E-1    3.807974074951906E-1
 8.230000000000000E9     9.309173976214544E-1    3.006852341890221E-1
 8.240000000000000E9     9.540607492521046E-1    2.168542527341133E-1
 8.250000000000000E9     9.695814521186722E-1    1.296259792056368E-1
 8.260000000000000E9     9.764132439706817E-1    3.877062220905589E-2
 8.270000000000000E9     9.738037457825428E-1   -5.532414061956057E-2
 8.280000000000000E9     9.613116024268562E-1   -1.520819164757943E-1
 8.290000000000000E9     9.376536729566395E-1   -2.508143841170030E-1
 8.300000000000000E9     9.010955026009111E-1   -3.485996443882277E-1
 8.310000000000000E9     8.505568860858155E-1   -4.351563716750581E-1
 8.320000000000000E9     8.105518827948429E-1   -5.166472879543338E-1
 8.330000000000000E9     7.539079336246231E-1   -6.090776728094502E-1
 8.340000000000000E9     6.807396344658663E-1   -6.936484353899063E-1
 8.350000000000000E9     5.951684609126762E-1   -7.689291239827128E-1
 8.360000000000000E9     4.974181565408630E-1   -8.341724583920291E-1
 8.370000000000000E9     3.883240436820103E-1   -8.877720311255619E-1
 8.380000000000000E9     2.690926511544444E-1   -9.284201509804414E-1
 8.390000000000000E9     1.416444759223671E-1   -9.542135888799244E-1
 8.400000000000000E9     8.430901146068840E-3   -9.634832346108797E-1
 8.410000000000000E9    -1.275835483987907E-1   -9.550375506550484E-1
 8.420000000000000E9    -2.628073435204588E-1   -9.277181232059325E-1
 8.430000000000000E9    -3.938547682529062E-1   -8.810171998827496E-1
 8.440000000000000E9    -5.176184822281318E-1   -8.150430009842794E-1
 8.450000000000000E9    -6.310084292641199E-1   -7.303055937982929E-1
 8.460000000000000E9    -7.313157784650094E-1   -6.276565999498425E-1
 8.470000000000000E9    -8.160632668545398E-1   -5.091329423098563E-1
 8.480000000000000E9    -8.827875111967188E-1   -3.773905106994582E-1
 8.490000000000000E9    -9.293941577082190E-1   -2.361115795013581E-1
 8.500000000000000E9    -9.546407075681536E-1   -8.991169976785363E-2
 8.510000000000000E9    -9.583367729713789E-1    5.686922229145131E-2
 8.520000000000000E9    -9.409020143663276E-1    1.997543504852070E-1
 8.530000000000000E9    -9.033956253070125E-1    3.357033027700779E-1
 8.540000000000000E9    -8.470906790362169E-1    4.619078439193574E-1
 8.550000000000000E9    -7.740543196351933E-1    5.761617753790725E-1
 8.560000000000000E9    -6.860439328971892E-1    6.775616526980598E-1
 8.570000000000000E9    -5.853334282795511E-1    7.646758230715289E-1
 8.580000000000000E9    -4.747092453535772E-1    8.368803942667834E-1
 8.590000000000000E9    -3.568239224519263E-1    8.934390230823598E-1
 8.600000000000000E9    -2.345552665354224E-1    9.340540372557302E-1
 8.610000000000000E9    -1.110664094186670E-1    9.584897999286092E-1
 8.620000000000000E9     1.145605370563113E-2    9.671027579809934E-1
 8.630000000000000E9     1.312259113162897E-1    9.604675871064285E-1
 8.640000000000000E9     2.467293288720393E-1    9.385432677278909E-1
 8.650000000000000E9     3.570158896939590E-1    9.022095489351788E-1
 8.660000000000000E9     4.610634200733097E-1    8.526943509910980E-1
 8.670000000000000E9     5.582787218059886E-1    7.906708484115527E-1
 8.680000000000000E9     6.476556671654307E-1    7.173544292855207E-1
 8.690000000000000E9     7.283038571022893E-1    6.345550439309955E-1
 8.700000000000000E9     7.989173501340322E-1    5.435692629381729E-1
 8.710000000000000E9     8.584003260894186E-1    4.458771131314794E-1
 8.720000000000000E9     9.059739833701635E-1    3.435952378555006E-1
 8.730000000000000E9     9.408598049596405E-1    2.373364537067945E-1
 8.740000000000000E9     9.626579892651017E-1    1.283346104095529E-1
 8.750000000000000E9     9.709888696994174E-1    1.721272389310188E-2
 8.760000000000000E9     9.652659797476409E-1   -9.490796516290033E-2
 8.770000000000000E9     9.459052238872265E-1   -2.070098161751503E-1
 8.780000000000000E9     9.127537207102375E-1   -3.176066145771132E-1
 8.790000000000000E9     8.664727980784166E-1   -4.248692745659268E-1
 8.800000000000000E9     8.078958925259135E-1   -5.270326752039727E-1
 8.810000000000000E9     7.378386800532309E-1   -6.219023548382253E-1
 8.820000000000000E9     6.572341631815096E-1   -7.075749563800762E-1
 8.830000000000000E9     5.670660553899535E-1   -7.826269809001939E-1
 8.840000000000000E9     4.687057563685532E-1   -8.455873728213062E-1
 8.850000000000000E9     3.628771152652643E-1   -8.955951906814430E-1
 8.860000000000000E9     2.508696957656817E-1   -9.320494461087219E-1
 8.870000000000000E9     1.340061599189560E-1   -9.542770354870603E-1
 8.880000000000000E9     1.416400291591219E-2   -9.621060321800751E-1
 8.890000000000000E9    -1.063019970522606E-1   -9.554747389544165E-1
 8.900000000000000E9    -2.254522526803276E-1   -9.344715293850118E-1
 8.910000000000000E9    -3.403184153268365E-1   -8.997551104586350E-1
 8.920000000000000E9    -4.488513806139288E-1   -8.520975719561303E-1
 8.930000000000000E9    -5.491403470956552E-1   -7.921553373857112E-1
 8.940000000000000E9    -6.400582399289750E-1   -7.211510966859213E-1
 8.950000000000000E9    -7.204284912380015E-1   -6.403716107132604E-1
 8.960000000000000E9    -7.895935539260264E-1   -5.508927306884798E-1
 8.970000000000000E9    -8.475898419253490E-1   -4.542326768498816E-1
 8.980000000000000E9    -8.938884997071728E-1   -3.520557345890324E-1
 8.990000000000000E9    -9.285794303562178E-1   -2.460574806211197E-1
 9.000000000000000E9    -9.510775451661615E-1   -1.384599026616635E-1
 9.010000000000000E9    -9.621820807681897E-1   -3.120295306644159E-2
 9.020000000000000E9    -9.618135765989277E-1    7.419943556153701E-2
 9.030000000000000E9    -9.502203088301655E-1    1.761564865299636E-1
 9.040000000000000E9    -9.282385523661808E-1    2.733775782518473E-1
 9.050000000000000E9    -8.963851436808860E-1    3.657698611670333E-1
 9.060000000000000E9    -8.554516547547866E-1    4.527746905175232E-1
 9.070000000000000E9    -8.060786522484349E-1    5.341480772602720E-1
 9.080000000000000E9    -7.495607076193882E-1    6.098763783600575E-1
 9.090000000000000E9    -6.864628347565882E-1    6.796081089272038E-1
 9.100000000000000E9    -6.179211092016822E-1    7.430639613944506E-1
 9.110000000000000E9    -5.451674315734272E-1    7.994844403148892E-1
 9.120000000000000E9    -4.691322576226292E-1    8.483090664741367E-1
 9.130000000000000E9    -3.908950859792673E-1    8.890490893392764E-1
 9.140000000000000E9    -3.112330983234766E-1    9.216088481200285E-1
 9.150000000000000E9    -2.307252375795353E-1    9.458988077717713E-1
 9.160000000000000E9    -1.496974219405247E-1    9.622654910990430E-1
 9.170000000000000E9    -6.826391347009718E-2    9.710936090531631E-1
 9.180000000000000E9     1.342300732843350E-2    9.728179765240063E-1
 9.190000000000000E9     9.520671127700917E-2    9.678809786183229E-1
 9.200000000000000E9     1.770588137925919E-1    9.563175905800622E-1
 9.210000000000000E9     2.579335302963858E-1    9.383309905983385E-1
 9.220000000000000E9     3.371854401356475E-1    9.137400412613030E-1
 9.230000000000000E9     4.142901540144838E-1    8.829183160362187E-1
 9.240000000000000E9     4.880102943772854E-1    8.454555703860234E-1
 9.250000000000000E9     5.578897951543430E-1    8.017900059054758E-1
 9.260000000000000E9     6.233381424709108E-1    7.522998531928056E-1
 9.270000000000000E9     6.841643111076213E-1    6.969818174479360E-1
 9.280000000000000E9     7.404511967082439E-1    6.361751935628138E-1
 9.290000000000000E9     7.919639061936220E-1    5.697679741024507E-1
 9.300000000000000E9     8.386882732046413E-1    4.979492857755934E-1
 9.310000000000000E9     8.798757395022111E-1    4.207257115195502E-1
 9.320000000000000E9     9.151092308533305E-1    3.383122091880325E-1
 9.330000000000000E9     9.433600590534349E-1    2.511281050538104E-1
 9.340000000000000E9     9.635920274135001E-1    1.595891911057909E-1
 9.350000000000000E9     9.745092354780311E-1    6.461181091838261E-2
 9.360000000000000E9     9.753919776767160E-1   -3.310230904794570E-2
 9.370000000000000E9     9.658276085284550E-1   -1.324581474115342E-1
 9.380000000000000E9     9.450926478383799E-1   -2.328835411229274E-1
 9.390000000000000E9     9.126162464239191E-1   -3.333462973294131E-1
 9.400000000000000E9     8.678543339540856E-1   -4.330704111683371E-1
 9.410000000000000E9     8.100694916032459E-1   -5.304788000542610E-1
 9.420000000000000E9     7.387784473140072E-1   -6.241324810528168E-1
 9.430000000000000E9     6.529961114841925E-1   -7.117946158700810E-1
 9.440000000000000E9     5.528392211795103E-1   -7.899637545259511E-1
 9.450000000000000E9     4.389726953985007E-1   -8.560170390658476E-1
 9.460000000000000E9     3.130418225329859E-1   -9.066360322409334E-1
 9.470000000000000E9     1.769122359836310E-1   -9.391810689547548E-1
 9.480000000000000E9     3.410535709462442E-2   -9.514794039381237E-1
 9.490000000000000E9    -1.118334953590330E-1   -9.418760728621862E-1
 9.500000000000000E9    -2.575104328360535E-1   -9.096537635862727E-1
 9.510000000000000E9    -3.984257070278567E-1   -8.542195772053701E-1
 9.520000000000000E9    -5.304430402908664E-1   -7.758824747170066E-1
 9.530000000000000E9    -6.488854923121435E-1   -6.764306883176830E-1
 9.540000000000000E9    -7.497815856418304E-1   -5.583986863780557E-1
 9.550000000000000E9    -8.293215057733661E-1   -4.256190081457925E-1
 9.560000000000000E9    -8.853392594397449E-1   -2.831936098577010E-1
 9.570000000000000E9    -9.169513061017694E-1   -1.360832736392638E-1
 9.580000000000000E9    -9.251604804819461E-1    1.061242828692622E-2
 9.590000000000000E9    -9.115153223136157E-1    1.527289352632576E-1
 9.600000000000000E9    -8.781384725203868E-1    2.867357889769530E-1
 9.610000000000000E9    -8.278261965404340E-1    4.104949108545519E-1
 9.620000000000000E9    -7.631514907798919E-1    5.218786344595699E-1
 9.630000000000000E9    -6.863832300337969E-1    6.197881163011200E-1
 9.640000000000000E9    -6.003531681481871E-1    7.037428900567991E-1
 9.650000000000000E9    -5.074214310105370E-1    7.729445473670019E-1
 9.660000000000000E9    -4.108530192680062E-1    8.279926979563468E-1
 9.670000000000000E9    -3.125658247153868E-1    8.698798646358047E-1
 9.680000000000000E9    -2.146413735822066E-1    8.995779620569718E-1
 9.690000000000000E9    -1.183513645964440E-1    9.183014234889402E-1
 9.700000000000000E9    -2.466634797515255E-2    9.268928150830311E-1
 9.710000000000000E9     6.539483269873406E-2    9.263564026485259E-1
 9.720000000000000E9     1.521272287599585E-1    9.173980310482891E-1
 9.730000000000000E9     2.347127966022405E-1    9.006550831096118E-1
 9.740000000000000E9     3.129852771199281E-1    8.767430851465240E-1
 9.750000000000000E9     3.868884627315298E-1    8.464656080866003E-1
 9.760000000000000E9     4.562808971873426E-1    8.106460756699949E-1
 9.770000000000000E9     5.207580514259890E-1    7.702225520088208E-1
 9.780000000000000E9     5.802511885905514E-1    7.263230980856440E-1
 9.790000000000000E9     6.347862426937766E-1    6.794707645291047E-1
 9.800000000000000E9     6.844038858613345E-1    6.304344043123832E-1
 9.810000000000000E9     7.293048677877320E-1    5.794336291936226E-1
 9.820000000000000E9     7.694276896359497E-1    5.266605824735732E-1
 9.830000000000000E9     8.048937566362796E-1    4.718433695206417E-1
 9.840000000000000E9     8.357306217585662E-1    4.149924578520659E-1
 9.850000000000000E9     8.620130212271987E-1    3.560587441809309E-1
 9.860000000000000E9     8.835856441468776E-1    2.953018626196801E-1
 9.870000000000000E9     9.006837367870852E-1    2.333229586564612E-1
 9.880000000000000E9     9.135983472618594E-1    1.704904805803200E-1
 9.890000000000000E9     9.225525873788319E-1    1.076010353129927E-1
 9.900000000000000E9     9.276859228682173E-1    4.504328094042030E-2
 9.910000000000000E9     9.291006031776498E-1   -1.681010388435995E-2
 9.920000000000000E9     9.265708035744269E-1   -7.803050153744825E-2
 9.930000000000000E9     9.201913676518392E-1   -1.385539535588419E-1
 9.940000000000000E9     9.094086126233484E-1   -1.985624940219742E-1
 9.950000000000000E9     8.940106682691323E-1   -2.581496034128252E-1
 9.960000000000000E9     8.737990365793070E-1   -3.175244988303206E-1
 9.970000000000000E9     8.487447898647247E-1   -3.764265484474996E-1
 9.980000000000000E9     8.191250549323698E-1   -4.346947559952231E-1
 9.990000000000000E9     7.851481983536113E-1   -4.916689619061928E-1
 1.000000000000000E+10   7.473492782674366E-1   -5.468205684043569E-1
 1.001000000000000E+10   7.061272445642810E-1   -6.002523826142496E-1
 1.002000000000000E+10   6.612267897236855E-1   -6.508396254637743E-1
 1.003000000000000E+10   6.125779046970558E-1   -6.984784850959996E-1
 1.004000000000000E+10   5.597421083801739E-1   -7.429387857785003E-1
 1.005000000000000E+10   5.021589207870097E-1   -7.840251992138586E-1
 1.006000000000000E+10   4.390117407028261E-1   -8.212189283636145E-1
 1.007000000000000E+10   3.704668621206335E-1   -8.542164825060146E-1
 1.008000000000000E+10   2.957749363565614E-1   -8.821526435446588E-1
 1.009000000000000E+10   2.155911138248565E-1   -9.047873840036960E-1
 1.010000000000000E+10   1.309275468968907E-1   -9.212346400717326E-1
 1.011000000000000E+10   4.252882098016142E-2   -9.305450528420578E-1
 1.012000000000000E+10  -4.824237548066019E-2   -9.325945057561311E-1
 1.013000000000000E+10  -1.408399777413830E-1   -9.257804597659661E-1
 1.014000000000000E+10  -2.344512332100080E-1   -9.092008272954611E-1
 1.015000000000000E+10  -3.282826790322561E-1   -8.819389878340891E-1
 1.016000000000000E+10  -4.220679638791221E-1   -8.424839114726645E-1
 1.017000000000000E+10  -5.146800835254878E-1   -7.895088550380485E-1
 1.018000000000000E+10  -6.045687853106840E-1   -7.224517456359517E-1
 1.019000000000000E+10  -6.898032406817951E-1   -6.411626219062515E-1
 1.020000000000000E+10  -7.678236214055326E-1   -5.457784833188098E-1
 1.021000000000000E+10  -8.355337098759144E-1   -4.379383189030615E-1
 1.022000000000000E+10  -8.899202707802412E-1   -3.195110684203743E-1
 1.023000000000000E+10  -9.287794548970333E-1   -1.933075412555645E-1
 1.024000000000000E+10  -9.500488668092449E-1   -6.145714757395289E-2
 1.025000000000000E+10  -9.518358093333449E-1    7.319335025744864E-2
 1.026000000000000E+10  -9.332985447233203E-1    2.084862871357506E-1
 1.027000000000000E+10  -8.938584017839879E-1    3.417231213658413E-1
 1.028000000000000E+10  -8.333594740717097E-1    4.700699258555477E-1
 1.029000000000000E+10  -7.526885543951607E-1    5.897715590085720E-1
 1.030000000000000E+10  -6.545020371438817E-1    6.974669617086708E-1
 1.031000000000000E+10  -5.418957172659334E-1    7.896219966333583E-1
 1.032000000000000E+10  -4.191750724250067E-1    8.637297302305791E-1
 1.033000000000000E+10  -2.902831761311369E-1    9.182226426524446E-1
 1.034000000000000E+10  -1.590121915971644E-1    9.527907629538311E-1
 1.035000000000000E+10  -2.820934350660411E-2    9.675753262574419E-1
 1.036000000000000E+10   9.979537598322315E-2    9.639474285596712E-1
 1.037000000000000E+10   2.233949776489754E-1    9.429845326236990E-1
 1.038000000000000E+10   3.410268840591508E-1    9.065967316182705E-1
 1.039000000000000E+10   4.511508607110591E-1    8.565050628719935E-1
 1.040000000000000E+10   5.525007223691557E-1    7.952356531823948E-1
 1.041000000000000E+10   6.436710975930890E-1    7.249913888495265E-1
 1.042000000000000E+10   7.237223238303728E-1    6.476574475868189E-1
 1.043000000000000E+10   7.917882583717658E-1    5.656578010470135E-1
 1.044000000000000E+10   8.482117312515750E-1    4.801480889212826E-1
 1.045000000000000E+10   8.930890677247930E-1    3.928615624421950E-1
 1.046000000000000E+10   9.267628076340686E-1    3.033496533167144E-1
 1.047000000000000E+10   9.504202631670595E-1    2.130290011533393E-1
 1.048000000000000E+10   9.649592183296577E-1    1.219980393702578E-1
 1.049000000000000E+10   9.705606120525883E-1    3.071645860437173E-2
 1.050000000000000E+10   9.684096540695991E-1   -5.974378095977254E-2
 1.051000000000000E+10   9.590196022743096E-1   -1.481438540304348E-1
 1.052000000000000E+10   9.426988212458216E-1   -2.334830948980126E-1
 1.053000000000000E+10   9.203005790064793E-1   -3.147326989998418E-1
 1.054000000000000E+10   8.920359672259592E-1   -3.911030862299434E-1
 1.055000000000000E+10   8.581564884952980E-1   -4.624362990900013E-1
 1.056000000000000E+10   8.188530634097855E-1   -5.290235927369024E-1
 1.057000000000000E+10   7.736025562046182E-1   -5.909264649194905E-1
 1.058000000000000E+10   7.231379734525889E-1   -6.485752759041795E-1
 1.059000000000000E+10   6.676570151819328E-1   -7.024850615739211E-1
 1.060000000000000E+10   6.074978227223297E-1   -7.525055989553187E-1
 1.061000000000000E+10   5.434168836110164E-1   -7.986922751842305E-1
 1.062000000000000E+10   4.763397822738308E-1   -8.402435694706238E-1
 1.063000000000000E+10   4.073324038656080E-1   -8.766818194312443E-1
 1.064000000000000E+10   3.368998400463377E-1   -9.075571673099145E-1
 1.065000000000000E+10   2.655838997876688E-1   -9.318937013415491E-1
 1.066000000000000E+10   1.936080739713052E-1   -9.498268762572387E-1
 1.067000000000000E+10   1.211430526024376E-1   -9.610979296055846E-1
 1.068000000000000E+10   4.747342148026736E-2   -9.657710721517129E-1
 1.069000000000000E+10  -2.762356536413319E-2   -9.640893012588433E-1
 1.070000000000000E+10  -1.042734974504742E-1   -9.561574324773147E-1
 1.071000000000000E+10  -1.822351260197000E-1   -9.418675793206177E-1
 1.072000000000000E+10  -2.605253438622621E-1   -9.215591603839753E-1
 1.073000000000000E+10  -3.381055357091959E-1   -8.951680419427018E-1
 1.074000000000000E+10  -4.137236807855795E-1   -8.631324586732323E-1
 1.075000000000000E+10  -4.858566852358428E-1   -8.253586675345566E-1
 1.076000000000000E+10  -5.538756311209367E-1   -7.817445384173981E-1
 1.077000000000000E+10  -6.171711990131462E-1   -7.323512547190221E-1
 1.078000000000000E+10  -6.757824050656966E-1   -6.770605605764861E-1
 1.079000000000000E+10  -7.291029673879044E-1   -6.156911529116310E-1
 1.080000000000000E+10  -7.777292460257151E-1   -5.481656637535085E-1
 1.081000000000000E+10  -8.212581663184234E-1   -4.744933185815581E-1
 1.082000000000000E+10  -8.596959193951360E-1   -3.951595538052197E-1
 1.083000000000000E+10  -8.918298546257112E-1   -3.108664388145738E-1
 1.084000000000000E+10  -9.171314859590263E-1   -2.227291194133910E-1
 1.085000000000000E+10  -9.346665093408657E-1   -1.321264870163723E-1
 1.086000000000000E+10  -9.434425930628273E-1   -4.036136358795451E-2
 1.087000000000000E+10  -9.429005093725872E-1    5.131750538945314E-2
 1.088000000000000E+10  -9.328632551588960E-1    1.426337650938213E-1
 1.089000000000000E+10  -9.129677335271957E-1    2.327350549358929E-1
 1.090000000000000E+10  -8.834015061929872E-1    3.214084874606477E-1
 1.091000000000000E+10  -8.443288710864654E-1    4.082077157226676E-1
 1.092000000000000E+10  -7.957592490738681E-1    4.928186363055803E-1
 1.093000000000000E+10  -7.376359679055450E-1    5.739654138337547E-1
 1.094000000000000E+10  -6.711328839623790E-1    6.503665210698399E-1
 1.095000000000000E+10  -5.965264602369282E-1    7.199877563385623E-1
 1.096000000000000E+10  -5.151472110866386E-1    7.816482000114127E-1
 1.097000000000000E+10  -4.281126003864327E-1    8.334525798876329E-1
 1.098000000000000E+10  -3.365965565486279E-1    8.750406467717394E-1
 1.099000000000000E+10  -2.414836873188968E-1    9.059857299994322E-1
 1.100000000000000E+10  -1.435939795134414E-1    9.259375296537812E-1
 1.101000000000000E+10  -4.355111481936796E-2    9.352485528592885E-1
 1.102000000000000E+10   5.838716270231417E-2    9.339783308657733E-1
 1.103000000000000E+10   1.609466274410462E-1    9.221637783350307E-1
 1.104000000000000E+10   2.626414919179565E-1    8.996923764817113E-1
 1.105000000000000E+10   3.617673515832412E-1    8.666124849539867E-1
 1.106000000000000E+10   4.563143157355380E-1    8.234935227940436E-1
 1.107000000000000E+10   5.445143043934182E-1    7.708032512117461E-1
 1.108000000000000E+10   6.254266054187583E-1    7.093072391381455E-1
 1.109000000000000E+10   6.978525656427885E-1    6.403001751476257E-1
 1.110000000000000E+10   7.613982324236184E-1    5.644735905320388E-1
 1.111000000000000E+10   8.160363668226213E-1    4.829590900368080E-1
 1.112000000000000E+10   8.622265786475660E-1    3.962904563650828E-1
 1.113000000000000E+10   8.995703148259188E-1    3.055288095427636E-1
 1.114000000000000E+10   9.281057637207704E-1    2.110194888854717E-1
 1.115000000000000E+10   9.472153063687920E-1    1.143001755815026E-1
 1.116000000000000E+10   9.565202535369565E-1    1.626395482183883E-2
 1.117000000000000E+10   9.556127234724765E-1   -8.171976239188690E-2
 1.118000000000000E+10   9.444805390209640E-1   -1.777838730977799E-1
 1.119000000000000E+10   9.234892667314692E-1   -2.708461280541561E-1
 1.120000000000000E+10   8.934176490063658E-1   -3.606595808511050E-1
 1.121000000000000E+10   8.544443897363658E-1   -4.465219729515026E-1
 1.122000000000000E+10   8.074299768962384E-1   -5.278469557670521E-1
 1.123000000000000E+10   7.528192213954913E-1   -6.045824740570113E-1
 1.124000000000000E+10   6.909046215713531E-1   -6.763059887675270E-1
 1.125000000000000E+10   6.223350486848894E-1   -7.418414820661777E-1
 1.126000000000000E+10   5.477391951836469E-1   -8.006831686309611E-1
 1.127000000000000E+10   4.675958198670601E-1   -8.517914721378471E-1
 1.128000000000000E+10   3.832970587556878E-1   -8.945514284298197E-1
 1.129000000000000E+10   2.955145847786749E-1   -9.279154148222679E-1
 1.130000000000000E+10   2.049694430455117E-1   -9.522652096988060E-1
 1.131000000000000E+10   1.123582978470506E-1   -9.670626003416105E-1
 1.132000000000000E+10   1.890429854697152E-2   -9.731962793531120E-1
 1.133000000000000E+10  -7.494400380264142E-2   -9.702849923265279E-1
 1.134000000000000E+10  -1.686211761604116E-1   -9.584776541822033E-1
 1.135000000000000E+10  -2.617364615570896E-1   -9.378251371245128E-1
 1.136000000000000E+10  -3.528655946447409E-1   -9.080760651435438E-1
 1.137000000000000E+10  -4.410079766271343E-1   -8.689787766834414E-1
 1.138000000000000E+10  -5.252725605908574E-1   -8.204075005417555E-1
 1.139000000000000E+10  -6.040385156702287E-1   -7.634551355594441E-1
 1.140000000000000E+10  -6.762685257672166E-1   -6.985364635817045E-1
 1.141000000000000E+10  -7.414615667009736E-1   -6.264214569436980E-1
 1.142000000000000E+10  -7.990571992992059E-1   -5.479782359896814E-1
 1.143000000000000E+10  -8.488482526824109E-1   -4.643383004448549E-1
 1.144000000000000E+10  -8.907274727213969E-1   -3.761475238668198E-1
 1.145000000000000E+10  -9.239010304378875E-1   -2.841963822888161E-1
 1.146000000000000E+10  -9.477179236911921E-1   -1.884545380341239E-1
 1.147000000000000E+10  -9.617550970251217E-1   -9.066642454650629E-2
 1.148000000000000E+10  -9.648305878720460E-1    8.268046222538978E-3
 1.149000000000000E+10  -9.577033318561862E-1    1.073359370905358E-1
 1.150000000000000E+10  -9.393280010469125E-1    2.051418862807596E-1
 1.151000000000000E+10  -9.109553458075594E-1    3.002778646725039E-1
 1.152000000000000E+10  -8.731062231715093E-1    3.918566369164800E-1
 1.153000000000000E+10  -8.262702191403410E-1    4.793055473288511E-1
 1.154000000000000E+10  -7.711874746852526E-1    5.614819606981871E-1
 1.155000000000000E+10  -7.083782282513413E-1    6.377415950158750E-1
 1.156000000000000E+10  -6.384061655913313E-1    7.072946959067585E-1
 1.157000000000000E+10  -5.617103306580743E-1    7.694634148436482E-1
 1.158000000000000E+10  -4.788723812933925E-1    8.231118305601378E-1
 1.159000000000000E+10  -3.907399225240200E-1    8.676416542454098E-1
 1.160000000000000E+10  -2.985504687271927E-1    9.021683883664723E-1
 1.161000000000000E+10  -2.038394836146192E-1    9.267191139146599E-1
 1.162000000000000E+10  -1.075772784340633E-1    9.412349406912420E-1
 1.163000000000000E+10  -1.139393196244522E-2    9.462125504837690E-1
 1.164000000000000E+10   8.369607791599391E-2    9.421054641171418E-1
 1.165000000000000E+10   1.768351848537795E-1    9.290481146434951E-1
 1.166000000000000E+10   2.672878752399048E-1    9.074447064183946E-1
 1.167000000000000E+10   3.544476218047211E-1    8.771783599981678E-1
 1.168000000000000E+10   4.376716111938769E-1    8.382801333936228E-1
 1.169000000000000E+10   5.163240906335496E-1    7.913490847160652E-1
 1.170000000000000E+10   5.895752828618466E-1    7.365565161742604E-1
 1.171000000000000E+10   6.570173240078865E-1    6.753640957092244E-1
 1.172000000000000E+10   7.179667875252987E-1    6.083600707466428E-1
 1.173000000000000E+10   7.721433251207866E-1    5.368572928787377E-1
 1.174000000000000E+10   8.191221648956181E-1    4.618899850213228E-1
 1.175000000000000E+10   8.588060621286551E-1    3.841908525370804E-1
 1.176000000000000E+10   8.907043808384808E-1    3.048496640743944E-1
 1.177000000000000E+10   9.149454630113144E-1    2.245084460252788E-1
 1.178000000000000E+10   9.314623669612919E-1    1.433301336281123E-1
 1.179000000000000E+10   9.401897698535897E-1    6.144429120321197E-2
 1.180000000000000E+10   9.412626176477973E-1   -2.046209987010088E-2
 1.181000000000000E+10   9.346971628134485E-1   -1.022114225531058E-1
 1.182000000000000E+10   9.208369362915781E-1   -1.832583066986873E-1
 1.183000000000000E+10   9.005708285620032E-1   -2.626474149820426E-1
 1.184000000000000E+10   8.742153624822934E-1   -3.399807507576758E-1
 1.185000000000000E+10   8.423009609034570E-1   -4.142930581724474E-1
 1.186000000000000E+10   8.054306088069049E-1   -4.849907642253075E-1
 1.187000000000000E+10   7.632989165949579E-1   -5.517445801183081E-1
 1.188000000000000E+10   7.161215043315171E-1   -6.139876746142031E-1
 1.189000000000000E+10   6.637595446233853E-1   -6.714415947641872E-1
 1.190000000000000E+10   6.062462815423174E-1   -7.239066672750075E-1
 1.191000000000000E+10   5.440020761165156E-1   -7.709578559262238E-1
 1.192000000000000E+10   4.774265631860037E-1   -8.128221366960792E-1
 1.193000000000000E+10   4.071612806050816E-1   -8.493831348030031E-1
 1.194000000000000E+10   3.341056979461305E-1   -8.806204235839487E-1
 1.195000000000000E+10   2.590183310174052E-1   -9.063000758197487E-1
 1.196000000000000E+10   1.828211008527102E-1   -9.264725768942270E-1
 1.197000000000000E+10   1.056404192684513E-1   -9.407225645276783E-1
 1.198000000000000E+10   2.846219703237407E-2   -9.483955793301380E-1
 1.199000000000000E+10  -4.896557789788091E-2   -9.494263062114540E-1
 1.200000000000000E+10  -1.262741228232300E-1   -9.435983252014268E-1
 1.201000000000000E+10  -2.036223966194350E-1   -9.300728144768297E-1
 1.202000000000000E+10  -2.811732057053765E-1   -9.094591335405082E-1
 1.203000000000000E+10  -3.579347626702297E-1   -8.813990857966775E-1
 1.204000000000000E+10  -4.334919982775707E-1   -8.461878766743454E-1
 1.205000000000000E+10  -5.068610778374664E-1   -8.042966271222004E-1
 1.206000000000000E+10  -5.775377392660848E-1   -7.562642690368365E-1
 1.207000000000000E+10  -6.442586885261167E-1   -7.026761018804464E-1
 1.208000000000000E+10  -7.061247610787607E-1   -6.436096465222194E-1
 1.209000000000000E+10  -7.625427704655008E-1   -5.791192423610084E-1
 1.210000000000000E+10  -8.126805719105389E-1   -5.093393124236966E-1
 1.211000000000000E+10  -8.559495878242028E-1   -4.340821246192996E-1
 1.212000000000000E+10  -8.922231958610159E-1   -3.536364236096635E-1
 1.213000000000000E+10  -9.208851326959293E-1   -2.680748010547110E-1
 1.214000000000000E+10  -9.416725040712179E-1   -1.787061057061461E-1
 1.215000000000000E+10  -9.544698117323932E-1   -8.562061821633661E-2
 1.216000000000000E+10  -9.587676025732909E-1    9.357121607752988E-3
 1.217000000000000E+10  -9.541461378871214E-1    1.051830732447112E-1
 1.218000000000000E+10  -9.402384644126351E-1    2.005198052209662E-1
 1.219000000000000E+10  -9.162778477155840E-1    2.943724379387325E-1
 1.220000000000000E+10  -8.821523687887453E-1    3.856050109347955E-1
 1.221000000000000E+10  -8.378254144769254E-1    4.731542558035951E-1
 1.222000000000000E+10  -7.824993123150092E-1    5.562519134126062E-1
 1.223000000000000E+10  -7.175209688879178E-1    6.343008337419119E-1
 1.224000000000000E+10  -6.429790396767411E-1    7.070001947182754E-1
 1.225000000000000E+10  -5.597470223673953E-1    7.722266458267895E-1
 1.226000000000000E+10  -4.692871636485514E-1    8.290195089359160E-1
 1.227000000000000E+10  -3.739723639742655E-1    8.761326650140195E-1
 1.228000000000000E+10  -2.745761892093456E-1    9.128195245325879E-1
 1.229000000000000E+10  -1.724326451517970E-1    9.379011403142623E-1
 1.230000000000000E+10  -6.918669868923344E-2    9.510016118872592E-1
 1.231000000000000E+10   3.480247885309518E-2    9.512203116476657E-1
 1.232000000000000E+10   1.385673714115943E-1    9.386610967047729E-1
 1.233000000000000E+10   2.407749119740331E-1    9.137110309618687E-1
 1.234000000000000E+10   3.410945204529620E-1    8.764988888526618E-1
 1.235000000000000E+10   4.373667616652619E-1    8.277854982074232E-1
 1.236000000000000E+10   5.286140315029930E-1    7.690410019958374E-1
 1.237000000000000E+10   6.123435242401061E-1    7.011200460253565E-1
 1.238000000000000E+10   6.875313193090636E-1    6.262083166153026E-1
 1.239000000000000E+10   7.524310748288114E-1    5.449801026062905E-1
 1.240000000000000E+10   8.065520338769855E-1    4.592083162033682E-1
 1.241000000000000E+10   8.493292119399074E-1    3.696403729925463E-1
 1.242000000000000E+10   8.808159150876138E-1    2.767826942694369E-1
 1.243000000000000E+10   9.011016057231026E-1    1.815991349682361E-1
 1.244000000000000E+10   9.108545071222075E-1    8.467121416838518E-2
 1.245000000000000E+10   9.104823568448573E-1   -1.259749038108675E-2
 1.246000000000000E+10   9.005457120224412E-1   -1.090229819713583E-1
 1.247000000000000E+10   8.817242882829593E-1   -2.030368180284667E-1
 1.248000000000000E+10   8.545168690195432E-1   -2.930476667028186E-1
 1.249000000000000E+10   8.197506452167614E-1   -3.780025570397377E-1
 1.250000000000000E+10   7.779778088202839E-1   -4.565289144913675E-1
