#  HZ   S   RI   R     50.00 
! Rohde & Schwarz Vector Network Analyzer 
! Rohde-Schwarz,ZNA43-4Port,1332450044101932,2.92
! Created: UTC 6/1/2026, 11:34:54 AM
! freq[Hz]                re:S11                  im:S11
 8.000000000000000E9    -1.580189022528454E-1    9.628053240092056E-1
 8.010000000000000E9    -7.496109344645729E-2    9.745867590734333E-1
 8.020000000000000E9     6.814969007080595E-3    9.789259339209930E-1
 8.030000000000000E9     8.728232312805087E-2    9.759815819773315E-1
 8.040000000000000E9     1.669731798422336E-1    9.656894407531972E-1
 8.050000000000000E9     2.456908682005369E-1    9.483154590831794E-1
 8.060000000000000E9     3.227952806649681E-1    9.238122933628624E-1
 8.070000000000000E9     3.982318824801968E-1    8.929507167194036E-1
 8.080000000000000E9     4.713676495593132E-1    8.562265204765583E-1
 8.090000000000000E9     5.413521267445768E-1    8.139119110877570E-1
 8.100000000000000E9     6.081682855475088E-1    7.660776527997823E-1
 8.110000000000000E9     6.710593762127801E-1    7.130049100897524E-1
 8.120000000000000E9     7.292535880762570E-1    6.547682455375536E-1
 8.130000000000000E9     7.824320169232206E-1    5.904720164955189E-1
 8.140000000000000E9     8.302388683906593E-1    5.203669008466941E-1
 8.150000000000000E9     8.722871776231615E-1    4.438071340569399E-1
 8.160000000000000E9     9.078780974951290E-1    3.616258731196024E-1
 8.170000000000000E9     9.366307926950520E-1    2.736535467669480E-1
 8.180000000000000E9     9.577747576753082E-1    1.810034479140116E-1
 8.190000000000000E9     9.709006639580419E-1    8.423982872399179E-2
 8.200000000000000E9     9.745888471497226E-1   -1.533762172211094E-2
 8.210000000000000E9     9.684401029252940E-1   -1.173546645645737E-1
 8.220000000000000E9     9.506650320872437E-1   -2.206794839056072E-1
 8.230000000000000E9     9.204049967765484E-1   -3.242738453698627E-1
 8.240000000000000E9     8.760998083181536E-1   -4.270929788075468E-1
 8.250000000000000E9     8.172722329312735E-1   -5.279723418983409E-1
 8.260000000000000E9     7.428533478228393E-1   -6.248690547740142E-1
 8.270000000000000E9     6.527325169245740E-1   -7.153320031318907E-1
 8.280000000000000E9     5.476176232876748E-1   -7.965532561805040E-1
 8.290000000000000E9     4.283895807070386E-1   -8.653723601200028E-1
 8.300000000000000E9     2.977096574286506E-1   -9.185214409993623E-1
 8.310000000000000E9     1.572575614068494E-1   -9.532441476543374E-1
 8.320000000000000E9     9.843745092552774E-3   -9.665503738506515E-1
 8.330000000000000E9    -1.413490580107283E-1   -9.560478106246481E-1
 8.340000000000000E9    -2.927044165820991E-1   -9.197725487533460E-1
 8.350000000000000E9    -4.396955382715383E-1   -8.569755485151561E-1
 8.360000000000000E9    -5.771734488365208E-1   -7.680295910783984E-1
 8.370000000000000E9    -6.999545028327048E-1   -6.552355630553762E-1
 8.380000000000000E9    -8.030328006201128E-1   -5.221968714151426E-1
 8.390000000000000E9    -8.823495206829823E-1   -3.739927418210679E-1
 8.400000000000000E9    -9.351800133723154E-1   -2.162668687845371E-1
 8.410000000000000E9    -9.600579741804410E-1   -5.444875846890796E-2
 8.420000000000000E9    -9.568521050839234E-1    1.061047776441170E-1
 8.430000000000000E9    -9.271233835139233E-1    2.610316464170364E-1
 8.440000000000000E9    -8.727333416386095E-1    4.063439264487230E-1
 8.450000000000000E9    -7.965078314332981E-1    5.390982686283903E-1
 8.460000000000000E9    -7.018400682939694E-1    6.566078608035385E-1
 8.470000000000000E9    -5.931192058402722E-1    7.566329529942901E-1
 8.480000000000000E9    -4.742190145003229E-1    8.378008694111618E-1
 8.490000000000000E9    -3.492643291109209E-1    8.993816489981538E-1
 8.500000000000000E9    -2.222841743678168E-1    9.413824373936347E-1
 8.510000000000000E9    -9.489105519678502E-2    9.649086365340326E-1
 8.520000000000000E9     3.026811121157440E-2    9.707350922309175E-1
 8.530000000000000E9     1.522283906009559E-1    9.595199731038658E-1
 8.540000000000000E9     2.697516329226986E-1    9.325879954112106E-1
 8.550000000000000E9     3.816724249509125E-1    8.913419570638965E-1
 8.560000000000000E9     4.873372804062282E-1    8.370374865018736E-1
 8.570000000000000E9     5.851831337758786E-1    7.712854459372364E-1
 8.580000000000000E9     6.741167577849894E-1    6.958434818930418E-1
 8.590000000000000E9     7.527572000163141E-1    6.123490166604585E-1
 8.600000000000000E9     8.202822129303884E-1    5.220191906334020E-1
 8.610000000000000E9     8.757963734521692E-1    4.263372283626096E-1
 8.620000000000000E9     9.189896181551258E-1    3.260785892642905E-1
 8.630000000000000E9     9.495878606662213E-1    2.217083694885625E-1
 8.640000000000000E9     9.672833961658056E-1    1.143077145559131E-1
 8.650000000000000E9     9.721516695752959E-1    4.730225122348494E-3
 8.660000000000000E9     9.647195692748325E-1   -1.060188979412905E-1
 8.670000000000000E9     9.449537641688334E-1   -2.163360313678936E-1
 8.680000000000000E9     9.130895282210063E-1   -3.244228206680216E-1
 8.690000000000000E9     8.697177457882431E-1   -4.285656559872846E-1
 8.700000000000000E9     8.153537820230359E-1   -5.269561897323743E-1
 8.710000000000000E9     7.498937786179161E-1   -6.177861691758040E-1
 8.720000000000000E9     6.744960912781497E-1   -7.002288803629729E-1
 8.730000000000000E9     5.890206558330749E-1   -7.731419718448637E-1
 8.740000000000000E9     4.942499493735946E-1   -8.354876493296284E-1
 8.750000000000000E9     3.910775926791348E-1   -8.866730271427893E-1
 8.760000000000000E9     2.811688627871102E-1   -9.255958862428425E-1
 8.770000000000000E9     1.660464786332204E-1   -9.518139072005191E-1
 8.780000000000000E9     4.823143753198897E-2   -9.646101688776808E-1
 8.790000000000000E9    -6.991017742022049E-2   -9.638003933057339E-1
 8.800000000000000E9    -1.866086405500982E-1   -9.492625355184706E-1
 8.810000000000000E9    -2.994732308325169E-1   -9.210658260653741E-1
 8.820000000000000E9    -4.070753562965201E-1   -8.793184977579852E-1
 8.830000000000000E9    -5.081281782852847E-1   -8.245017109894237E-1
 8.840000000000000E9    -6.015691515741081E-1   -7.576823026603652E-1
 8.850000000000000E9    -6.863624692830131E-1   -6.798572864204755E-1
 8.860000000000000E9    -7.618408400837451E-1   -5.923235095349637E-1
 8.870000000000000E9    -8.267032288323264E-1   -4.966614447098845E-1
 8.880000000000000E9    -8.800835193491376E-1   -3.948440962700509E-1
 8.890000000000000E9    -9.214129319073944E-1   -2.892953764642126E-1
 8.900000000000000E9    -9.501009714224542E-1   -1.815964069753826E-1
 8.910000000000000E9    -9.658153530733823E-1   -7.376597935590666E-2
 8.920000000000000E9    -9.691169900012871E-1    3.292945539052064E-2
 8.930000000000000E9    -9.599676678841398E-1    1.376483719386926E-1
 8.940000000000000E9    -9.391792078202007E-1    2.396904788779547E-1
 8.950000000000000E9    -9.074751258741014E-1    3.380616805208753E-1
 8.960000000000000E9    -8.655770545115959E-1    4.320676930723049E-1
 8.970000000000000E9    -8.146408449548183E-1    5.210886889785490E-1
 8.980000000000000E9    -7.557131140539314E-1    6.040217703831429E-1
 8.990000000000000E9    -6.900711181848957E-1    6.798014616592640E-1
 9.000000000000000E9    -6.185914593019743E-1    7.475314631112847E-1
 9.010000000000000E9    -5.427205004799827E-1    8.065930063124409E-1
 9.020000000000000E9    -4.628571982242821E-1    8.564665623132871E-1
 9.030000000000000E9    -3.795363517529168E-1    8.972197899476634E-1
 9.040000000000000E9    -2.932801763199369E-1    9.290271353715730E-1
 9.050000000000000E9    -2.043625091920647E-1    9.519529948085041E-1
 9.060000000000000E9    -1.132534208185193E-1    9.659991598645862E-1
 9.070000000000000E9    -2.081635257648514E-2    9.717540908964650E-1
 9.080000000000000E9     7.250615807450610E-2    9.692573204578938E-1
 9.090000000000000E9     1.654518680823657E-1    9.584519080192528E-1
 9.100000000000000E9     2.568231418590646E-1    9.392409234443460E-1
 9.110000000000000E9     3.454240940534368E-1    9.120407296051122E-1
 9.120000000000000E9     4.305046993833528E-1    8.763953902340385E-1
 9.130000000000000E9     5.111270018096239E-1    8.326638289802225E-1
 9.140000000000000E9     5.870667541797173E-1    7.809926211746998E-1
 9.150000000000000E9     6.578617726057225E-1    7.214251469670570E-1
 9.160000000000000E9     7.235534748094019E-1    6.538097770636105E-1
 9.170000000000000E9     7.836398578920649E-1    5.783867674016483E-1
 9.180000000000000E9     8.376716139331424E-1    4.953900349838297E-1
 9.190000000000000E9     8.844624787751527E-1    4.053185662527217E-1
 9.200000000000000E9     9.227137079366788E-1    3.083013660938433E-1
 9.210000000000000E9     9.510342827680354E-1    2.060338013864423E-1
 9.220000000000000E9     9.679607277676994E-1    9.948657755602215E-2
 9.230000000000000E9     9.725185834771607E-1   -1.083809438416052E-2
 9.240000000000000E9     9.634996765537217E-1   -1.228440829596044E-1
 9.250000000000000E9     9.402683272733499E-1   -2.358422997851765E-1
 9.260000000000000E9     9.022546576868199E-1   -3.483190410238868E-1
 9.270000000000000E9     8.488126502857879E-1   -4.587230650459840E-1
 9.280000000000000E9     7.794525354648831E-1   -5.652113814772490E-1
 9.290000000000000E9     6.938656847361281E-1   -6.651528011263214E-1
 9.300000000000000E9     5.921032136160543E-1   -7.554597987031058E-1
 9.310000000000000E9     4.754541549229677E-1   -8.323873558921495E-1
 9.320000000000000E9     3.453587895922297E-1   -8.923564963761006E-1
 9.330000000000000E9     2.049690208352256E-1   -9.325498408580235E-1
 9.340000000000000E9     5.762458586440449E-2   -9.501491757029149E-1
 9.350000000000000E9    -9.238547996134296E-2   -9.439902887220127E-1
 9.360000000000000E9    -2.412361015262691E-1   -9.137299550281731E-1
 9.370000000000000E9    -3.848328184526125E-1   -8.598225184775437E-1
 9.380000000000000E9    -5.188853842709423E-1   -7.834626201231781E-1
 9.390000000000000E9    -6.392745048637257E-1   -6.865516510578518E-1
 9.400000000000000E9    -7.420023451671751E-1   -5.721022299297459E-1
 9.410000000000000E9    -8.243660220975773E-1   -4.442411270225229E-1
 9.420000000000000E9    -8.839178025855676E-1   -3.072665672480999E-1
 9.430000000000000E9    -9.203330248010335E-1   -1.661335824235182E-1
 9.440000000000000E9    -9.342014481632454E-1   -2.568592076005397E-2
 9.450000000000000E9    -9.276808232682219E-1    1.107251387029654E-1
 9.460000000000000E9    -9.030867961279800E-1    2.403573950069461E-1
 9.470000000000000E9    -8.626167110582349E-1    3.607643350777726E-1
 9.480000000000000E9    -8.086526897434099E-1    4.711699419686072E-1
 9.490000000000000E9    -7.436990499944260E-1    5.704326399217496E-1
 9.500000000000000E9    -6.689297201715760E-1    6.575978497905952E-1
 9.510000000000000E9    -5.875963187437023E-1    7.327943855351317E-1
 9.520000000000000E9    -5.011330071874777E-1    7.956663829745458E-1
 9.530000000000000E9    -4.112959201524205E-1    8.460737038854851E-1
 9.540000000000000E9    -3.198741971310333E-1    8.850924953609418E-1
 9.550000000000000E9    -2.285280220968142E-1    9.134789177485505E-1
 9.560000000000000E9    -1.384609016633208E-1    9.323594116350145E-1
 9.570000000000000E9    -5.036607670882608E-2    9.424355495699618E-1
 9.580000000000000E9     3.535630320225185E-2    9.447242561132817E-1
 9.590000000000000E9     1.184247455187063E-1    9.395926945972491E-1
 9.600000000000000E9     1.984241332888838E-1    9.273989228817682E-1
 9.610000000000000E9     2.753726324447802E-1    9.086749820471691E-1
 9.620000000000000E9     3.489362366992586E-1    8.836974742066316E-1
 9.630000000000000E9     4.186725434368484E-1    8.529012691663929E-1
 9.640000000000000E9     4.844810537881147E-1    8.171794917416566E-1
 9.650000000000000E9     5.459155794678533E-1    7.770981155142429E-1
 9.660000000000000E9     6.031613300353212E-1    7.336354349947494E-1
 9.670000000000000E9     6.564029091675683E-1    6.872622819878044E-1
 9.680000000000000E9     7.053524024540339E-1    6.382281606567519E-1
 9.690000000000000E9     7.501170908786604E-1    5.868777588794640E-1
 9.700000000000000E9     7.905741645894869E-1    5.328568147572490E-1
 9.710000000000000E9     8.266918875074106E-1    4.765751138567674E-1
 9.720000000000000E9     8.583154422781140E-1    4.177241543305646E-1
 9.730000000000000E9     8.852718384335250E-1    3.566710978477982E-1
 9.740000000000000E9     9.076112852582063E-1    2.937162316256207E-1
 9.750000000000000E9     9.253819853623441E-1    2.290438948577491E-1
 9.760000000000000E9     9.386922519902566E-1    1.632118432104064E-1
 9.770000000000000E9     9.475561517160490E-1    9.686228296352520E-2
 9.780000000000000E9     9.522966352622991E-1    3.010063507661258E-2
 9.790000000000000E9     9.526613643318862E-1   -3.673780530270119E-2
 9.800000000000000E9     9.484108636130933E-1   -1.036610942758428E-1
 9.810000000000000E9     9.393673674721380E-1   -1.708621780486745E-1
 9.820000000000000E9     9.249318263054398E-1   -2.382091724610287E-1
 9.830000000000000E9     9.048202677873028E-1   -3.056111629528563E-1
 9.840000000000000E9     8.786734561069789E-1   -3.729160399604171E-1
 9.850000000000000E9     8.462750742468644E-1   -4.396371249863765E-1
 9.860000000000000E9     8.079966423306759E-1   -5.052438383174238E-1
 9.870000000000000E9     7.639304726850250E-1   -5.690019374106869E-1
 9.880000000000000E9     7.142638137668167E-1   -6.303579255370196E-1
 9.890000000000000E9     6.591352955564439E-1   -6.888258232060401E-1
 9.900000000000000E9     5.981793248240008E-1   -7.436316079893379E-1
 9.910000000000000E9     5.311543326773001E-1   -7.942253710591388E-1
 9.920000000000000E9     4.573671474928833E-1   -8.397093440624107E-1
 9.930000000000000E9     3.762416620368994E-1   -8.794304028096376E-1
 9.940000000000000E9     2.878587368548036E-1   -9.117713314632553E-1
 9.950000000000000E9     1.921492883101475E-1   -9.359729615815785E-1
 9.960000000000000E9     8.962389711679672E-2   -9.506168535236857E-1
 9.970000000000000E9    -1.812639915163622E-2   -9.544241637833580E-1
 9.980000000000000E9    -1.298098112679205E-1   -9.462039168953011E-1
 9.990000000000000E9    -2.433392865850474E-1   -9.247162762997041E-1
 1.000000000000000E+10  -3.564696584028985E-1   -8.887004539509490E-1
 1.001000000000000E+10  -4.690007620925303E-1   -8.373824491498920E-1
 1.002000000000000E+10  -5.765843200551155E-1   -7.688689655303975E-1
 1.003000000000000E+10  -6.772350392268031E-1   -6.824686751967495E-1
 1.004000000000000E+10  -7.679326434529473E-1   -5.777843144754082E-1
 1.005000000000000E+10  -8.446600526828725E-1   -4.556798016833275E-1
 1.006000000000000E+10  -9.036795948937997E-1   -3.187581558415384E-1
 1.007000000000000E+10  -9.422351149581389E-1   -1.707752987202476E-1
 1.008000000000000E+10  -9.574173261931241E-1   -1.658238761931717E-2
 1.009000000000000E+10  -9.483033196504826E-1    1.384868720135885E-1
 1.010000000000000E+10  -9.150756111304094E-1    2.894620851752271E-1
 1.011000000000000E+10  -8.585515077393402E-1    4.317120637279894E-1
 1.012000000000000E+10  -7.803146828947786E-1    5.617898133855759E-1
 1.013000000000000E+10  -6.827446773628646E-1    6.761810668767404E-1
 1.014000000000000E+10  -5.692109362891614E-1    7.722471342470080E-1
 1.015000000000000E+10  -4.435796056368963E-1    8.485919115849540E-1
 1.016000000000000E+10  -3.102125518507809E-1    9.042806487311011E-1
 1.017000000000000E+10  -1.743601135893495E-1    9.392683199810573E-1
 1.018000000000000E+10  -3.992270512077278E-2    9.549493996990115E-1
 1.019000000000000E+10   8.940050870537032E-2    9.527888896946428E-1
 1.020000000000000E+10   2.109370756561424E-1    9.348312076746863E-1
 1.021000000000000E+10   3.236401175583061E-1    9.031403229569517E-1
 1.022000000000000E+10   4.270373133404956E-1    8.594837539693074E-1
 1.023000000000000E+10   5.214247977607475E-1    8.053649885773843E-1
 1.024000000000000E+10   6.063628097007864E-1    7.416674674976209E-1
 1.025000000000000E+10   6.825177063194596E-1    6.705870286012987E-1
 1.026000000000000E+10   7.493126824709407E-1    5.933869978253853E-1
 1.027000000000000E+10   8.069739748719822E-1    5.120969470671608E-1
 1.028000000000000E+10   8.552232048727765E-1    4.285968068656377E-1
 1.029000000000000E+10   8.940712932543645E-1    3.448968014425459E-1
 1.030000000000000E+10   9.237757165745989E-1    2.618040191892461E-1
 1.031000000000000E+10   9.446894851523805E-1    1.798129197928460E-1
 1.032000000000000E+10   9.574511189415034E-1    9.925777790009796E-2
 1.033000000000000E+10   9.619997620934200E-1    1.973950488364630E-2
 1.034000000000000E+10   9.592861046647060E-1   -5.865182391574306E-2
 1.035000000000000E+10   9.495521191078534E-1   -1.361268876851889E-1
 1.036000000000000E+10   9.336397324734607E-1   -2.129556577410515E-1
 1.037000000000000E+10   9.119574165022353E-1   -2.883496822667825E-1
 1.038000000000000E+10   8.852615019950798E-1   -3.616423058420994E-1
 1.039000000000000E+10   8.540585738493978E-1   -4.317245389881284E-1
 1.040000000000000E+10   8.187765583803408E-1   -4.980284442008054E-1
 1.041000000000000E+10   7.798081660950161E-1   -5.599699286126566E-1
 1.042000000000000E+10   7.367421706404557E-1   -6.169540487052675E-1
 1.043000000000000E+10   6.898911096558041E-1   -6.692034684189375E-1
 1.044000000000000E+10   6.385989715696181E-1   -7.170592501134680E-1
 1.045000000000000E+10   5.830625406573069E-1   -7.607809974779863E-1
 1.046000000000000E+10   5.227773122457728E-1   -8.004755656444649E-1
 1.047000000000000E+10   4.584911367414662E-1   -8.363728470337186E-1
 1.048000000000000E+10   3.906864816314863E-1   -8.683655151330404E-1
 1.049000000000000E+10   3.201961862330762E-1   -8.959181048943213E-1
 1.050000000000000E+10   2.480604114568687E-1   -9.185848173634238E-1
 1.051000000000000E+10   1.750786532333993E-1   -9.361166241758507E-1
 1.052000000000000E+10   1.017925288077714E-1   -9.477533251278993E-1
 1.053000000000000E+10   2.827617166944254E-2   -9.532163029990126E-1
 1.054000000000000E+10  -4.554315051746236E-2   -9.520849774347907E-1
 1.055000000000000E+10  -1.199962248930783E-1   -9.442067134693728E-1
 1.056000000000000E+10  -1.954462821534846E-1   -9.292708659133813E-1
 1.057000000000000E+10  -2.715760227483246E-1   -9.072506047415332E-1
 1.058000000000000E+10  -3.480415309325398E-1   -8.782624687426968E-1
 1.059000000000000E+10  -4.240770272663031E-1   -8.422790370503204E-1
 1.060000000000000E+10  -4.983108030366233E-1   -7.997464198070442E-1
 1.061000000000000E+10  -5.697347548507785E-1   -7.507080254374360E-1
 1.062000000000000E+10  -6.368069478350115E-1   -6.956262209460726E-1
 1.063000000000000E+10  -6.985849107957222E-1   -6.343048474865295E-1
 1.064000000000000E+10  -7.540210204171129E-1   -5.667163804151061E-1
 1.065000000000000E+10  -8.028387775537849E-1   -4.928293146764031E-1
 1.066000000000000E+10  -8.447808323908931E-1   -4.124184684680225E-1
 1.067000000000000E+10  -8.791804602578235E-1   -3.253654065957204E-1
 1.068000000000000E+10  -9.057285810919928E-1   -2.319997437983451E-1
 1.069000000000000E+10  -9.236046109954951E-1   -1.332468386649221E-1
 1.070000000000000E+10  -9.319712632276776E-1   -3.043156623188274E-2
 1.071000000000000E+10  -9.299510713069464E-1    7.423049254421847E-2
 1.072000000000000E+10  -9.167593911198332E-1    1.787315335490418E-1
 1.073000000000000E+10  -8.921360672053561E-1    2.812706580327768E-1
 1.074000000000000E+10  -8.556086353729639E-1    3.802937803690760E-1
 1.075000000000000E+10  -8.074093761233392E-1    4.744086649452363E-1
 1.076000000000000E+10  -7.472146280681325E-1    5.627992561103976E-1
 1.077000000000000E+10  -6.756384648044602E-1    6.450783886725271E-1
 1.078000000000000E+10  -5.926145596268797E-1    7.201454716156994E-1
 1.079000000000000E+10  -4.995440630158200E-1    7.867445381053411E-1
 1.080000000000000E+10  -3.979038303795038E-1    8.433776496263397E-1
 1.081000000000000E+10  -2.896407527392301E-1    8.883935073992860E-1
 1.082000000000000E+10  -1.768173938239004E-1    9.206652323519245E-1
 1.083000000000000E+10  -6.228561189978409E-2    9.386882821683036E-1
 1.084000000000000E+10   5.219182751688869E-2    9.424988383916900E-1
 1.085000000000000E+10   1.647986546382517E-1    9.316265914884589E-1
 1.086000000000000E+10   2.740616258888151E-1    9.068257523410892E-1
 1.087000000000000E+10   3.795351517573841E-1    8.686312826516192E-1
 1.088000000000000E+10   4.799720669464189E-1    8.174990084598671E-1
 1.089000000000000E+10   5.746185453350769E-1    7.548597215474023E-1
 1.090000000000000E+10   6.619728825889850E-1    6.814693026879727E-1
 1.091000000000000E+10   7.406029090100351E-1    5.991287163805850E-1
 1.092000000000000E+10   8.087300449610543E-1    5.092033778993305E-1
 1.093000000000000E+10   8.649779183082636E-1    4.141329531721266E-1
 1.094000000000000E+10   9.090025583502434E-1    3.154856149026144E-1
 1.095000000000000E+10   9.404660681490515E-1    2.148869595994715E-1
 1.096000000000000E+10   9.594162630962139E-1    1.129807058303362E-1
 1.097000000000000E+10   9.670356411458210E-1    1.079201433446397E-2
 1.098000000000000E+10   9.632195038064708E-1   -9.123089658839670E-2
 1.099000000000000E+10   9.488565030718539E-1   -1.925742324241795E-1
 1.100000000000000E+10   9.242316770434337E-1   -2.920572874698653E-1
 1.101000000000000E+10   8.898667997006285E-1   -3.884969554525444E-1
 1.102000000000000E+10   8.458387354259910E-1   -4.802565206524771E-1
 1.103000000000000E+10   7.934518400966803E-1   -5.660806296355574E-1
 1.104000000000000E+10   7.331529157020954E-1   -6.444381206020552E-1
 1.105000000000000E+10   6.663027232270871E-1   -7.143988898428221E-1
 1.106000000000000E+10   5.938794149987646E-1   -7.762283953292369E-1
 1.107000000000000E+10   5.163477781622787E-1   -8.295194439627120E-1
 1.108000000000000E+10   4.341898147842531E-1   -8.746241858354270E-1
 1.109000000000000E+10   3.479544252116698E-1   -9.117672879604677E-1
 1.110000000000000E+10   2.583496761074408E-1   -9.410179076953356E-1
 1.111000000000000E+10   1.658811404673255E-1   -9.622274207439874E-1
 1.112000000000000E+10   7.145926664267126E-2   -9.744455805321356E-1
 1.113000000000000E+10  -2.369682245146878E-2   -9.775376235902083E-1
 1.114000000000000E+10  -1.185061702983571E-1   -9.708584590071460E-1
 1.115000000000000E+10  -2.114051155511915E-1   -9.546452397207780E-1
 1.116000000000000E+10  -3.016610723703453E-1   -9.289004185005688E-1
 1.117000000000000E+10  -3.884501128720130E-1   -8.939801293410186E-1
 1.118000000000000E+10  -4.714895042422231E-1   -8.511300877841587E-1
 1.119000000000000E+10  -5.502143787853305E-1   -8.003799804893231E-1
 1.120000000000000E+10  -6.245276085626303E-1   -7.419692473552513E-1
 1.121000000000000E+10  -6.937368260831646E-1   -6.763717773725474E-1
 1.122000000000000E+10  -7.568564744357680E-1   -6.042722308636745E-1
 1.123000000000000E+10  -8.128336917744414E-1   -5.260457228798661E-1
 1.124000000000000E+10  -8.603398539770875E-1   -4.423089588783958E-1
 1.125000000000000E+10  -8.989397580746294E-1   -3.544414873523754E-1
 1.126000000000000E+10  -9.277836837120663E-1   -2.632748208019142E-1
 1.127000000000000E+10  -9.467412940377896E-1   -1.699035754583714E-1
 1.128000000000000E+10  -9.560781902916348E-1   -7.485104635737230E-2
 1.129000000000000E+10  -9.560069091540671E-1    2.073655334921167E-2
 1.130000000000000E+10  -9.463738533269158E-1    1.165059327964336E-1
 1.131000000000000E+10  -9.275331185013498E-1    2.111423396399887E-1
 1.132000000000000E+10  -8.995411680151337E-1    3.041614195191372E-1
 1.133000000000000E+10  -8.624801783319141E-1    3.942340780366626E-1
 1.134000000000000E+10  -8.164069032484964E-1    4.799912672893060E-1
 1.135000000000000E+10  -7.617252570043435E-1    5.603019168957577E-1
 1.136000000000000E+10  -6.990466451423125E-1    6.339231806596376E-1
 1.137000000000000E+10  -6.295802646065716E-1    7.000021813135099E-1
 1.138000000000000E+10  -5.541106484513673E-1    7.582235506397658E-1
 1.139000000000000E+10  -4.735998919438238E-1    8.084260399857158E-1
 1.140000000000000E+10  -3.889999107884060E-1    8.504271840785650E-1
 1.141000000000000E+10  -3.011577688560190E-1    8.842423479718795E-1
 1.142000000000000E+10  -2.106785888244963E-1    9.094936756389854E-1
 1.143000000000000E+10  -1.184155939545032E-1    9.257300964183111E-1
 1.144000000000000E+10  -2.502695783422434E-2    9.328727801719101E-1
 1.145000000000000E+10   6.821059146289810E-2    9.303493347062478E-1
 1.146000000000000E+10   1.600701904090653E-1    9.184113366063390E-1
 1.147000000000000E+10   2.496971466340288E-1    8.972650114503414E-1
 1.148000000000000E+10   3.362961833775074E-1    8.677804250910141E-1
 1.149000000000000E+10   4.190963382354261E-1    8.300101174197514E-1
 1.150000000000000E+10   4.975737335686796E-1    7.854307160670749E-1
 1.151000000000000E+10   5.714652697647619E-1    7.342282792369390E-1
 1.152000000000000E+10   6.398381777934576E-1    6.767259090169641E-1
 1.153000000000000E+10   7.024182563832232E-1    6.134414954896433E-1
 1.154000000000000E+10   7.586990213648832E-1    5.448453401256341E-1
 1.155000000000000E+10   8.078151886179581E-1    4.713908828989760E-1
 1.156000000000000E+10   8.495874190397434E-1    3.933636387937595E-1
 1.157000000000000E+10   8.831766492686923E-1    3.119944880605452E-1
 1.158000000000000E+10   9.086925058502902E-1    2.283987945295772E-1
 1.159000000000000E+10   9.260058237254369E-1    1.430410968674544E-1
 1.160000000000000E+10   9.358353998108608E-1    5.732949303135164E-2
 1.161000000000000E+10   9.380683119645593E-1   -2.809929770361703E-2
 1.162000000000000E+10   9.332428634948664E-1   -1.129330673690286E-1
 1.163000000000000E+10   9.210314942645762E-1   -1.965953353747164E-1
 1.164000000000000E+10   9.014104756475757E-1   -2.785762382611945E-1
 1.165000000000000E+10   8.743476372183825E-1   -3.584047710753909E-1
 1.166000000000000E+10   8.393781926408336E-1   -4.354175103856898E-1
 1.167000000000000E+10   7.969259880942621E-1   -5.088911247321396E-1
 1.168000000000000E+10   7.474301696341860E-1   -5.783422549996439E-1
 1.169000000000000E+10   6.918321358122910E-1   -6.433678055705793E-1
 1.170000000000000E+10   6.308377395654805E-1   -7.032016721680958E-1
 1.171000000000000E+10   5.650459061965266E-1   -7.579275600100907E-1
 1.172000000000000E+10   4.952942290887556E-1   -8.065024005916651E-1
 1.173000000000000E+10   4.221884518626242E-1   -8.489008217645108E-1
 1.174000000000000E+10   3.459372417341035E-1   -8.845698907793621E-1
 1.175000000000000E+10   2.667489900475143E-1   -9.129663705214636E-1
 1.176000000000000E+10   1.848621180311690E-1   -9.338045945954941E-1
 1.177000000000000E+10   1.005531854222363E-1   -9.467973490880500E-1
 1.178000000000000E+10   1.433282495672588E-2   -9.518337156325946E-1
 1.179000000000000E+10  -7.331554295322062E-2   -9.483894296029581E-1
 1.180000000000000E+10  -1.614664163703066E-1   -9.369638261322394E-1
 1.181000000000000E+10  -2.492574401966529E-1   -9.175620998909582E-1
 1.182000000000000E+10  -3.351424710170369E-1   -8.903532897239914E-1
 1.183000000000000E+10  -4.190916646569737E-1   -8.557920503455351E-1
 1.184000000000000E+10  -4.997898573082970E-1   -8.130556329187058E-1
 1.185000000000000E+10  -5.760518390854812E-1   -7.623897749287074E-1
 1.186000000000000E+10  -6.478585065696310E-1   -7.037219842088659E-1
 1.187000000000000E+10  -7.137766360093314E-1   -6.370083053728520E-1
 1.188000000000000E+10  -7.732770666590301E-1   -5.625880550046725E-1
 1.189000000000000E+10  -8.253995812098708E-1   -4.811756209984043E-1
 1.190000000000000E+10  -8.696633925081820E-1   -3.939532152753274E-1
 1.191000000000000E+10  -9.059096270993401E-1   -3.016705320028508E-1
 1.192000000000000E+10  -9.331058051816121E-1   -2.051318728778770E-1
 1.193000000000000E+10  -9.502430645351194E-1   -1.058936093701487E-1
 1.194000000000000E+10  -9.574243779378581E-1   -4.962452309376191E-3
 1.195000000000000E+10  -9.532306669592499E-1    9.650132605151039E-2
 1.196000000000000E+10  -9.374620477820413E-1    1.981190578415353E-1
 1.197000000000000E+10  -9.089239670961086E-1    2.984284676013391E-1
 1.198000000000000E+10  -8.688260581594813E-1    3.964950000989862E-1
 1.199000000000000E+10  -8.163315643154266E-1    4.906533933208401E-1
 1.200000000000000E+10  -7.525850446658262E-1    5.799205565762480E-1
 1.201000000000000E+10  -6.789631319843814E-1    6.621544726786242E-1
 1.202000000000000E+10  -5.960631533356778E-1    7.362825750470616E-1
 1.203000000000000E+10  -5.061317363868081E-1    8.006609907114752E-1
 1.204000000000000E+10  -4.106970517006022E-1    8.541212877332242E-1
 1.205000000000000E+10  -3.108689178472671E-1    8.956482726829975E-1
 1.206000000000000E+10  -2.076603594809681E-1    9.244590591552294E-1
 1.207000000000000E+10  -1.018400474518436E-1    9.407792403451002E-1
 1.208000000000000E+10   5.400305110913112E-3    9.438498005057662E-1
 1.209000000000000E+10   1.127588681284451E-1    9.338916448773162E-1
 1.210000000000000E+10   2.187329547041736E-1    9.116332423411936E-1
 1.211000000000000E+10   3.214718585118735E-1    8.776208341717383E-1
 1.212000000000000E+10   4.196827432761842E-1    8.332246016672538E-1
 1.213000000000000E+10   5.110862061235506E-1    7.794472215319946E-1
 1.214000000000000E+10   5.949784096642157E-1    7.175053470351098E-1
 1.215000000000000E+10   6.698936141890532E-1    6.479261830452944E-1
 1.216000000000000E+10   7.353308553867816E-1    5.718143516804849E-1
 1.217000000000000E+10   7.905992606141695E-1    4.899258457615023E-1
 1.218000000000000E+10   8.358340340882151E-1    4.029810602604972E-1
 1.219000000000000E+10   8.709260134022677E-1    3.121363462634535E-1
 1.220000000000000E+10   8.963103729962302E-1    2.183408841762735E-1
 1.221000000000000E+10   9.121872304766422E-1    1.229127323431240E-1
 1.222000000000000E+10   9.190511301718971E-1    2.754340896704639E-2
 1.223000000000000E+10   9.171883797055890E-1   -6.631697939738757E-2
 1.224000000000000E+10   9.065681477175253E-1   -1.574332342406343E-1
 1.225000000000000E+10   8.880315850048464E-1   -2.447391895321337E-1
 1.226000000000000E+10   8.615649316732402E-1   -3.273917239780855E-1
 1.227000000000000E+10   8.271915627150371E-1   -4.059121801501439E-1
 1.228000000000000E+10   7.853058280014681E-1   -4.795069017563766E-1
 1.229000000000000E+10   7.362149539876776E-1   -5.483520271996852E-1
 1.230000000000000E+10   6.807247520520515E-1   -6.127243414267228E-1
 1.231000000000000E+10   6.195787316792526E-1   -6.722268475563227E-1
 1.232000000000000E+10   5.539660701084312E-1   -7.262665564654263E-1
 1.233000000000000E+10   4.846259036533154E-1   -7.744536655009154E-1
 1.234000000000000E+10   4.132569114383908E-1   -8.161159070006960E-1
 1.235000000000000E+10   3.403307826032357E-1   -8.512325908588827E-1
 1.236000000000000E+10   2.667303052036292E-1   -8.788179240655657E-1
 1.237000000000000E+10   1.927023217125481E-1   -8.993734493014982E-1
 1.238000000000000E+10   1.179398330516850E-1   -9.121855904952386E-1
 1.239000000000000E+10   4.250854131559356E-2   -9.182659338353197E-1
 1.240000000000000E+10  -3.358609731917697E-2   -9.171675346836066E-1
 1.241000000000000E+10  -1.104039766733162E-1   -9.096774025381514E-1
 1.242000000000000E+10  -1.874838801966812E-1   -8.960950991420248E-1
 1.243000000000000E+10  -2.638484932447209E-1   -8.768691344165479E-1
 1.244000000000000E+10  -3.382046793716446E-1   -8.521884584644808E-1
 1.245000000000000E+10  -4.097996480119088E-1   -8.224694833796322E-1
 1.246000000000000E+10  -4.779879754042931E-1   -7.877952846320743E-1
 1.247000000000000E+10  -5.417143865198807E-1   -7.480356483350383E-1
 1.248000000000000E+10  -6.009224244263720E-1   -7.033852467704140E-1
 1.249000000000000E+10  -6.558431002402451E-1   -6.534632285619678E-1
 1.250000000000000E+10  -7.063400536918263E-1   -5.982261073103247E-1
