#  HZ   S   RI   R     50.00 
! Rohde & Schwarz Vector Network Analyzer 
! Rohde-Schwarz,ZNA43-4Port,1332450044101932,2.92
! Created: UTC 6/1/2026, 11:35:04 AM
! freq[Hz]                re:S11                  im:S11
 8.000000000000000E9    -6.114323857587236E-1    7.519592993273231E-1
 8.010000000000000E9    -5.255768991963239E-1    8.172918265055239E-1
 8.020000000000000E9    -4.383812300610251E-1    8.700143599213014E-1
 8.030000000000000E9    -3.503815627189282E-1    9.110756026236037E-1
 8.040000000000000E9    -2.617420761105052E-1    9.415050978466132E-1
 8.050000000000000E9    -1.728858966808898E-1    9.622248902868472E-1
 8.060000000000000E9    -8.414744620987175E-2    9.732169198013013E-1
 8.070000000000000E9     3.982349349197336E-3    9.761077927371380E-1
 8.080000000000000E9     9.067043689535230E-2    9.714197328459366E-1
 8.090000000000000E9     1.753071755965489E-1    9.596268776804036E-1
 8.100000000000000E9     2.577442833895115E-1    9.413711893307146E-1
 8.110000000000000E9     3.371052364613957E-1    9.173162594057586E-1
 8.120000000000000E9     4.127480899472237E-1    8.873490027382349E-1
 8.130000000000000E9     4.848294214539771E-1    8.511928735604795E-1
 8.140000000000000E9     5.530866057590269E-1    8.090683482842651E-1
 8.150000000000000E9     6.176780350954578E-1    7.604931613043827E-1
 8.160000000000000E9     6.781169985034049E-1    7.059410221155152E-1
 8.170000000000000E9     7.344507982758626E-1    6.452777304755931E-1
 8.180000000000000E9     7.862170325464990E-1    5.790640672255183E-1
 8.190000000000000E9     8.333385176901382E-1    5.080118264775123E-1
 8.200000000000000E9     8.746770943698858E-1    4.326116863600145E-1
 8.210000000000000E9     9.103958465268136E-1    3.534108080419890E-1
 8.220000000000000E9     9.391998759942063E-1    2.705406513194220E-1
 8.230000000000000E9     9.604467714114190E-1    1.845061309977338E-1
 8.240000000000000E9     9.731633693152449E-1    9.502979607535819E-2
 8.250000000000000E9     9.770990603823020E-1    2.423880485020759E-3
 8.260000000000000E9     9.707606577696567E-1   -9.334401212656840E-2
 8.270000000000000E9     9.527052675430103E-1   -1.916892810025534E-1
 8.280000000000000E9     9.195944947634861E-1   -2.896283506227995E-1
 8.290000000000000E9     8.786904352863096E-1   -3.734937977856596E-1
 8.300000000000000E9     8.427820005042616E-1   -4.678487723113657E-1
 8.310000000000000E9     7.866857583136107E-1   -5.646805013808039E-1
 8.320000000000000E9     7.165595904309102E-1   -6.543567690672496E-1
 8.330000000000000E9     6.345593238180791E-1   -7.358664612187483E-1
 8.340000000000000E9     5.408690132099444E-1   -8.078087127171739E-1
 8.350000000000000E9     4.357370334154161E-1   -8.683831019870796E-1
 8.360000000000000E9     3.194549750391179E-1   -9.156268661345426E-1
 8.370000000000000E9     1.932827703123179E-1   -9.476742191163674E-1
 8.380000000000000E9     5.930712344992686E-2   -9.628657712363078E-1
 8.390000000000000E9    -7.946893008809376E-2   -9.595741509109500E-1
 8.400000000000000E9    -2.196244041792021E-1   -9.366249825930654E-1
 8.410000000000000E9    -3.573664557328283E-1   -8.935639656582814E-1
 8.420000000000000E9    -4.883342885300029E-1   -8.302914232446116E-1
 8.430000000000000E9    -6.088078836235520E-1   -7.475838247668202E-1
 8.440000000000000E9    -7.154678555615462E-1   -6.466293929611163E-1
 8.450000000000000E9    -8.054250046448307E-1   -5.292266247039313E-1
 8.460000000000000E9    -8.761957482635937E-1   -3.977792933167353E-1
 8.470000000000000E9    -9.259522000482363E-1   -2.555370861255108E-1
 8.480000000000000E9    -9.533481950602394E-1   -1.064918910839848E-1
 8.490000000000000E9    -9.577763684275181E-1    4.477147598178401E-2
 8.500000000000000E9    -9.398871198902666E-1    1.931629958282297E-1
 8.510000000000000E9    -9.011698205790688E-1    3.346518045878193E-1
 8.520000000000000E9    -8.435547646343603E-1    4.654257612060310E-1
 8.530000000000000E9    -7.691089193431919E-1    5.832268097123694E-1
 8.540000000000000E9    -6.799200045184801E-1    6.862956402882016E-1
 8.550000000000000E9    -5.785184986535645E-1    7.733295243530436E-1
 8.560000000000000E9    -4.669254557503473E-1    8.444019214137178E-1
 8.570000000000000E9    -3.476742298419057E-1    8.987834646368015E-1
 8.580000000000000E9    -2.236258976157229E-1    9.368490220611482E-1
 8.590000000000000E9    -9.743837260398867E-2    9.585972335079794E-1
 8.600000000000000E9     2.820319218827416E-2    9.645576710529835E-1
 8.610000000000000E9     1.505895816280687E-1    9.553160577892174E-1
 8.620000000000000E9     2.679058926835664E-1    9.316084649885377E-1
 8.630000000000000E9     3.789300463227651E-1    8.942609681007365E-1
 8.640000000000000E9     4.823868539360907E-1    8.436799278896974E-1
 8.650000000000000E9     5.776295772329862E-1    7.807586200559645E-1
 8.660000000000000E9     6.642156984710591E-1    7.068640849476583E-1
 8.670000000000000E9     7.415979667584732E-1    6.227831381366478E-1
 8.680000000000000E9     8.089549955410835E-1    5.299938184263112E-1
 8.690000000000000E9     8.657945263533661E-1    4.302522224111536E-1
 8.700000000000000E9     9.110962062484267E-1    3.253543979450231E-1
 8.710000000000000E9     9.440074095599208E-1    2.166742554779973E-1
 8.720000000000000E9     9.643050884747570E-1    1.064161722645319E-1
 8.730000000000000E9     9.712614783548462E-1   -4.871512517579043E-3
 8.740000000000000E9     9.646864124372426E-1   -1.159345402165402E-1
 8.750000000000000E9     9.444787514383097E-1   -2.260470329622162E-1
 8.760000000000000E9     9.103489142235837E-1   -3.338865432660690E-1
 8.770000000000000E9     8.629045881881756E-1   -4.384531887617086E-1
 8.780000000000000E9     8.025929155793220E-1   -5.380083314451184E-1
 8.790000000000000E9     7.304831512372620E-1   -6.308630976920543E-1
 8.800000000000000E9     6.478041807314898E-1   -7.153746190970888E-1
 8.810000000000000E9     5.560340135065561E-1   -7.896019414646603E-1
 8.820000000000000E9     4.563809323689940E-1   -8.519635587997785E-1
 8.830000000000000E9     3.501979506045884E-1   -9.014418895332342E-1
 8.840000000000000E9     2.390338918960018E-1   -9.370229780563047E-1
 8.850000000000000E9     1.240243941587147E-1   -9.583325830507785E-1
 8.860000000000000E9     6.468260781115919E-3   -9.650493220380397E-1
 8.870000000000000E9    -1.120910410647060E-1   -9.570351983943561E-1
 8.880000000000000E9    -2.296031167506846E-1   -9.346169416467557E-1
 8.890000000000000E9    -3.437419953190670E-1   -8.985224455737504E-1
 8.900000000000000E9    -4.525662137077648E-1   -8.493940673019598E-1
 8.910000000000000E9    -5.535319935320928E-1   -7.885014283795294E-1
 8.920000000000000E9    -6.451369188865459E-1   -7.172443106631935E-1
 8.930000000000000E9    -7.258418125162908E-1   -6.364736457536764E-1
 8.940000000000000E9    -7.951830522457706E-1   -5.477093671531155E-1
 8.950000000000000E9    -8.524979019351605E-1   -4.524005860870033E-1
 8.960000000000000E9    -8.974950783984955E-1   -3.515365669600856E-1
 8.970000000000000E9    -9.306755750893119E-1   -2.466034565552634E-1
 8.980000000000000E9    -9.520929210857476E-1   -1.393064893221557E-1
 8.990000000000000E9    -9.618828847739627E-1   -3.128570655696060E-2
 9.000000000000000E9    -9.602472475961097E-1    7.540990267681107E-2
 9.010000000000000E9    -9.483227415339377E-1    1.790957199388360E-1
 9.020000000000000E9    -9.260628211138667E-1    2.785164510005208E-1
 9.030000000000000E9    -8.941616501232159E-1    3.724488272115338E-1
 9.040000000000000E9    -8.535949526771092E-1    4.600807234985639E-1
 9.050000000000000E9    -8.047268401860778E-1    5.414275295197659E-1
 9.060000000000000E9    -7.483401468359201E-1    6.163599052141138E-1
 9.070000000000000E9    -6.851488741099522E-1    6.846366858190770E-1
 9.080000000000000E9    -6.161794773494774E-1    7.465544004629500E-1
 9.090000000000000E9    -5.421739532581954E-1    8.017535786491113E-1
 9.100000000000000E9    -4.640868803293752E-1    8.500414177275337E-1
 9.110000000000000E9    -3.833916816400061E-1    8.908685836384560E-1
 9.120000000000000E9    -3.007632030417874E-1    9.238867183622056E-1
 9.130000000000000E9    -2.174423336860486E-1    9.487266863808100E-1
 9.140000000000000E9    -1.339362051967116E-1    9.654211975223628E-1
 9.150000000000000E9    -5.089280017238570E-2    9.739289744806056E-1
 9.160000000000000E9     3.177331930216810E-2    9.747313382414747E-1
 9.170000000000000E9     1.138503290756507E-1    9.680365284354209E-1
 9.180000000000000E9     1.954000951034538E-1    9.543005643284034E-1
 9.190000000000000E9     2.761545283832829E-1    9.337869870396805E-1
 9.200000000000000E9     3.559918627693689E-1    9.063879609337977E-1
 9.210000000000000E9     4.338249509116154E-1    8.725408415286445E-1
 9.220000000000000E9     5.088131404624299E-1    8.320026489313533E-1
 9.230000000000000E9     5.804562983747211E-1    7.850886819114754E-1
 9.240000000000000E9     6.473974005801865E-1    7.317429606682606E-1
 9.250000000000000E9     7.093210891441617E-1    6.723219829641993E-1
 9.260000000000000E9     7.654999890032285E-1    6.072600677197900E-1
 9.270000000000000E9     8.158482897674789E-1    5.365729930130642E-1
 9.280000000000000E9     8.603133290009257E-1    4.604758016525188E-1
 9.290000000000000E9     8.984754800923126E-1    3.789385818945508E-1
 9.300000000000000E9     9.300158914161050E-1    2.920908474425937E-1
 9.310000000000000E9     9.538094573529760E-1    2.002525866789805E-1
 9.320000000000000E9     9.692095360153850E-1    1.039141849714463E-1
 9.330000000000000E9     9.750388604128754E-1    3.865793082610258E-3
 9.340000000000000E9     9.699924496670180E-1   -9.896614879715487E-2
 9.350000000000000E9     9.529434901721706E-1   -2.029806313029821E-1
 9.360000000000000E9     9.231241847705127E-1   -3.070280556991913E-1
 9.370000000000000E9     8.803554572655342E-1   -4.097198198666648E-1
 9.380000000000000E9     8.239129447181364E-1   -5.095680049295787E-1
 9.390000000000000E9     7.535566576915979E-1   -6.050920570154958E-1
 9.400000000000000E9     6.688215590800624E-1   -6.945062995076897E-1
 9.410000000000000E9     5.698183989764629E-1   -7.752405431857767E-1
 9.420000000000000E9     4.568643283192947E-1   -8.447300233032208E-1
 9.430000000000000E9     3.308315245537007E-1   -8.996544108131651E-1
 9.440000000000000E9     1.939474386863447E-1   -9.362126391713482E-1
 9.450000000000000E9     4.942769757303204E-2   -9.519540042963905E-1
 9.460000000000000E9    -9.881027835964525E-2   -9.447126344299618E-1
 9.470000000000000E9    -2.465776998930578E-1   -9.134011250229364E-1
 9.480000000000000E9    -3.890910010705366E-1   -8.584393336597709E-1
 9.490000000000000E9    -5.218170070523491E-1   -7.810813368705507E-1
 9.500000000000000E9    -6.411282782505718E-1   -6.829441747816093E-1
 9.510000000000000E9    -7.430044067053023E-1   -5.671037597594519E-1
 9.520000000000000E9    -8.244304000927524E-1   -4.368914247850088E-1
 9.530000000000000E9    -8.828885512761740E-1   -2.965475460487875E-1
 9.540000000000000E9    -9.174156229996154E-1   -1.506448274449687E-1
 9.550000000000000E9    -9.280174507747629E-1   -4.355965446065226E-3
 9.560000000000000E9    -9.164872363963729E-1    1.378633163697610E-1
 9.570000000000000E9    -8.847965897025222E-1    2.722604023480550E-1
 9.580000000000000E9    -8.363296638355802E-1    3.963062549036841E-1
 9.590000000000000E9    -7.739395390244289E-1    5.082185385116523E-1
 9.600000000000000E9    -7.004205592651805E-1    6.066634226156736E-1
 9.610000000000000E9    -6.181584218049788E-1    6.918093775383735E-1
 9.620000000000000E9    -5.293359381579797E-1    7.631616450452446E-1
 9.630000000000000E9    -4.358898441340212E-1    8.207750395524919E-1
 9.640000000000000E9    -3.395884001092268E-1    8.654464694513392E-1
 9.650000000000000E9    -2.424527270270301E-1    8.972848983642302E-1
 9.660000000000000E9    -1.463950629292652E-1    9.177833448252120E-1
 9.670000000000000E9    -5.229866831024441E-2    9.282360689132599E-1
 9.680000000000000E9     3.859566490256840E-2    9.297155863387961E-1
 9.690000000000000E9     1.257909366070552E-1    9.232390775429594E-1
 9.700000000000000E9     2.089277543571016E-1    9.094985018725065E-1
 9.710000000000000E9     2.875986537715373E-1    8.892295729616276E-1
 9.720000000000000E9     3.621360709051636E-1    8.627633939645972E-1
 9.730000000000000E9     4.320864150210144E-1    8.306067022901056E-1
 9.740000000000000E9     4.974219901378522E-1    7.932243386263353E-1
 9.750000000000000E9     5.582198766719570E-1    7.512090197189486E-1
 9.760000000000000E9     6.144702011091034E-1    7.051700490947269E-1
 9.770000000000000E9     6.659425610424810E-1    6.560123740907916E-1
 9.780000000000000E9     7.128184661837665E-1    6.046512319073286E-1
 9.790000000000000E9     7.551109024774023E-1    5.514364223806625E-1
 9.800000000000000E9     7.928187997272860E-1    4.968794166157456E-1
 9.810000000000000E9     8.262220717696358E-1    4.410330454559612E-1
 9.820000000000000E9     8.551059049341022E-1    3.839544702026250E-1
 9.830000000000000E9     8.795607099665974E-1    3.253815942211524E-1
 9.840000000000000E9     8.994667243775284E-1    2.651385151728022E-1
 9.850000000000000E9     9.147953214242657E-1    2.033363773066960E-1
 9.860000000000000E9     9.254181353234160E-1    1.403232822756026E-1
 9.870000000000000E9     9.316623504574634E-1    7.651671328928597E-2
 9.880000000000000E9     9.338268556552646E-1    1.238334135823910E-2
 9.890000000000000E9     9.321319241595574E-1   -5.144458505252410E-2
 9.900000000000000E9     9.266050887143207E-1   -1.145372577647173E-1
 9.910000000000000E9     9.173658110886741E-1   -1.767546421716673E-1
 9.920000000000000E9     9.040796471011295E-1   -2.379985169769465E-1
 9.930000000000000E9     8.866830842520187E-1   -2.983855975759054E-1
 9.940000000000000E9     8.643924149976869E-1   -3.578822956012211E-1
 9.950000000000000E9     8.373430995216946E-1   -4.165612401779530E-1
 9.960000000000000E9     8.049140220129406E-1   -4.744771523762208E-1
 9.970000000000000E9     7.672881937090373E-1   -5.311699342798681E-1
 9.980000000000000E9     7.246628530677847E-1   -5.864367897832102E-1
 9.990000000000000E9     6.773754247601430E-1   -6.395521458241901E-1
 1.000000000000000E+10   6.259676887925674E-1   -6.897421943124887E-1
 1.001000000000000E+10   5.707004537224253E-1   -7.376055664659574E-1
 1.002000000000000E+10   5.113528332420431E-1   -7.813632321771563E-1
 1.003000000000000E+10   4.478528144046492E-1   -8.209294785584438E-1
 1.004000000000000E+10   3.795221198784255E-1   -8.558114214319563E-1
 1.005000000000000E+10   3.059231578856965E-1   -8.854557631241010E-1
 1.006000000000000E+10   2.264340887251833E-1   -9.089261994954281E-1
 1.007000000000000E+10   1.415009477430944E-1   -9.257092895547121E-1
 1.008000000000000E+10   5.082647301608031E-2   -9.345727384584404E-1
 1.009000000000000E+10  -4.438665732565610E-2   -9.348654492819222E-1
 1.010000000000000E+10  -1.426708401817847E-1   -9.259151873823107E-1
 1.011000000000000E+10  -2.424897602225915E-1   -9.065178821997067E-1
 1.012000000000000E+10  -3.423404890585130E-1   -8.767845463284907E-1
 1.013000000000000E+10  -4.407075490544147E-1   -8.350307463679381E-1
 1.014000000000000E+10  -5.360590253138794E-1   -7.802223594461021E-1
 1.015000000000000E+10  -6.267956886565756E-1   -7.116931910061584E-1
 1.016000000000000E+10  -7.113791754847861E-1   -6.283801162475077E-1
 1.017000000000000E+10  -7.872906341416569E-1   -5.297329669996008E-1
 1.018000000000000E+10  -8.518609733226393E-1   -4.166908433461274E-1
 1.019000000000000E+10  -9.025699250290737E-1   -2.911464665722264E-1
 1.020000000000000E+10  -9.364052984209319E-1   -1.556216987994476E-1
 1.021000000000000E+10  -9.511560979615544E-1   -1.427201586014958E-2
 1.022000000000000E+10  -9.452210707238089E-1    1.287717085255291E-1
 1.023000000000000E+10  -9.186315687659999E-1    2.693250955335516E-1
 1.024000000000000E+10  -8.709665667700286E-1    4.039790657555707E-1
 1.025000000000000E+10  -8.030925271113573E-1    5.293947331635915E-1
 1.026000000000000E+10  -7.163004958455438E-1    6.430459751750424E-1
 1.027000000000000E+10  -6.124583903152351E-1    7.424897097259945E-1
 1.028000000000000E+10  -4.943449584902681E-1    8.252903592438997E-1
 1.029000000000000E+10  -3.657299503909137E-1    8.893954591911662E-1
 1.030000000000000E+10  -2.310934364636013E-1    9.342612962998169E-1
 1.031000000000000E+10  -9.480699273541200E-2    9.592595388029690E-1
 1.032000000000000E+10   3.885255095511352E-2    9.655044074887791E-1
 1.033000000000000E+10   1.670095715457436E-1    9.540626239950742E-1
 1.034000000000000E+10   2.875796234182740E-1    9.267884580206657E-1
 1.035000000000000E+10   3.991121578833063E-1    8.851421390793065E-1
 1.036000000000000E+10   5.014584248847277E-1    8.312572695845269E-1
 1.037000000000000E+10   5.943613248640585E-1    7.663842360417829E-1
 1.038000000000000E+10   6.775034147160348E-1    6.927986218003862E-1
 1.039000000000000E+10   7.504033200308275E-1    6.122229829108164E-1
 1.040000000000000E+10   8.131995951984980E-1    5.269350851505439E-1
 1.041000000000000E+10   8.654453059001623E-1    4.389277728258492E-1
 1.042000000000000E+10   9.070072585745971E-1    3.495129292686057E-1
 1.043000000000000E+10   9.380904594568953E-1    2.604685350253126E-1
 1.044000000000000E+10   9.591656720684936E-1    1.720714102453268E-1
 1.045000000000000E+10   9.708731718688551E-1    8.515039154324640E-2
 1.046000000000000E+10   9.732782431046777E-1   -1.148665294356833E-3
 1.047000000000000E+10   9.676399603154099E-1   -8.609091272488560E-2
 1.048000000000000E+10   9.548104207126343E-1   -1.698886415361500E-1
 1.049000000000000E+10   9.347590886667556E-1   -2.520452080161313E-1
 1.050000000000000E+10   9.087942680723974E-1   -3.318432002797553E-1
 1.051000000000000E+10   8.775172147198862E-1   -4.082617606371237E-1
 1.052000000000000E+10   8.412547605603012E-1   -4.804203445094312E-1
 1.053000000000000E+10   8.007931404894296E-1   -5.476585059389024E-1
 1.054000000000000E+10   7.563177263040336E-1   -6.094801956275278E-1
 1.055000000000000E+10   7.076616011119493E-1   -6.658260127834755E-1
 1.056000000000000E+10   6.548728620466240E-1   -7.170997900623980E-1
 1.057000000000000E+10   5.973995052870703E-1   -7.632776512346273E-1
 1.058000000000000E+10   5.357123022781229E-1   -8.049076008539362E-1
 1.059000000000000E+10   4.698722665525087E-1   -8.422870865785069E-1
 1.060000000000000E+10   4.005052117573670E-1   -8.752929724818052E-1
 1.061000000000000E+10   3.281946791609300E-1   -9.039297494700561E-1
 1.062000000000000E+10   2.541390010395911E-1   -9.274961081289349E-1
 1.063000000000000E+10   1.794076288235920E-1   -9.457749807006722E-1
 1.064000000000000E+10   1.043601394673218E-1   -9.580725130390843E-1
 1.065000000000000E+10   2.981405448458777E-2   -9.638772185420813E-1
 1.066000000000000E+10  -4.441139906241444E-2   -9.632184596497582E-1
 1.067000000000000E+10  -1.181754580388468E-1   -9.557435860372797E-1
 1.068000000000000E+10  -1.920578111248086E-1   -9.414909745950567E-1
 1.069000000000000E+10  -2.663531257091272E-1   -9.204577976460003E-1
 1.070000000000000E+10  -3.408486821683248E-1   -8.926536203253037E-1
 1.071000000000000E+10  -4.150911182073326E-1   -8.581563446627987E-1
 1.072000000000000E+10  -4.879350318229401E-1   -8.173936944453988E-1
 1.073000000000000E+10  -5.582355597334964E-1   -7.706165036010987E-1
 1.074000000000000E+10  -6.246514340871308E-1   -7.183323731872724E-1
 1.075000000000000E+10  -6.858058181856159E-1   -6.608086564056719E-1
 1.076000000000000E+10  -7.410833658455759E-1   -5.981481180862511E-1
 1.077000000000000E+10  -7.899895421353144E-1   -5.305357351903568E-1
 1.078000000000000E+10  -8.324850338288613E-1   -4.574887933842800E-1
 1.079000000000000E+10  -8.681341320206374E-1   -3.793135732103811E-1
 1.080000000000000E+10  -8.969889391453317E-1   -2.959213597600949E-1
 1.081000000000000E+10  -9.186824204469870E-1   -2.076439315863526E-1
 1.082000000000000E+10  -9.330400157053308E-1   -1.152126480613141E-1
 1.083000000000000E+10  -9.390020505282908E-1   -2.003391711462583E-2
 1.084000000000000E+10  -9.362021805560841E-1    7.644556665291766E-2
 1.085000000000000E+10  -9.239926578227643E-1    1.724992730987868E-1
 1.086000000000000E+10  -9.019308426999098E-1    2.663845189246616E-1
 1.087000000000000E+10  -8.700402557352930E-1    3.570816853104234E-1
 1.088000000000000E+10  -8.281034647165172E-1    4.440496713425643E-1
 1.089000000000000E+10  -7.762760425572462E-1    5.265432737858463E-1
 1.090000000000000E+10  -7.149195014713118E-1    6.042703626535509E-1
 1.091000000000000E+10  -6.444817142590716E-1    6.765217674281235E-1
 1.092000000000000E+10  -5.653449403262264E-1    7.428570716792264E-1
 1.093000000000000E+10  -4.781846905783229E-1    8.015460385302727E-1
 1.094000000000000E+10  -3.848621005386023E-1    8.514570263411413E-1
 1.095000000000000E+10  -2.866742152226286E-1    8.908453999988906E-1
 1.096000000000000E+10  -1.852936301677126E-1    9.192325256387754E-1
 1.097000000000000E+10  -8.264253485266493E-2    9.353335605159662E-1
 1.098000000000000E+10   2.028620347707454E-2    9.396499858255722E-1
 1.099000000000000E+10   1.226049676540035E-1    9.322158497914174E-1
 1.100000000000000E+10   2.235172723540328E-1    9.130912566345314E-1
 1.101000000000000E+10   3.223895856937833E-1    8.829654744001730E-1
 1.102000000000000E+10   4.187734587787093E-1    8.419338035620141E-1
 1.103000000000000E+10   5.111877551586722E-1    7.907721255841844E-1
 1.104000000000000E+10   5.980240326079130E-1    7.299480221701758E-1
 1.105000000000000E+10   6.775410877149680E-1    6.605608531810183E-1
 1.106000000000000E+10   7.482311934114939E-1    5.838610780920651E-1
 1.107000000000000E+10   8.088703854126534E-1    5.010294404799256E-1
 1.108000000000000E+10   8.591687105231798E-1    4.132844765223622E-1
 1.109000000000000E+10   8.987773727780464E-1    3.219263018586356E-1
 1.110000000000000E+10   9.279803040198913E-1    2.277609788301779E-1
 1.111000000000000E+10   9.470788601617577E-1    1.316356170735347E-1
 1.112000000000000E+10   9.565811291826194E-1    3.386783510907636E-2
 1.113000000000000E+10   9.565432102574027E-1   -6.446105946561506E-2
 1.114000000000000E+10   9.468816841668860E-1   -1.627782741426916E-1
 1.115000000000000E+10   9.275561475120169E-1   -2.593011700734245E-1
 1.116000000000000E+10   8.985704655391771E-1   -3.530850813419923E-1
 1.117000000000000E+10   8.601375302039551E-1   -4.426182451084087E-1
 1.118000000000000E+10   8.132316120990671E-1   -5.264161002242821E-1
 1.119000000000000E+10   7.583682120058299E-1   -6.039598619427047E-1
 1.120000000000000E+10   6.963105554296751E-1   -6.753831374707582E-1
 1.121000000000000E+10   6.275516377363051E-1   -7.401053068966078E-1
 1.122000000000000E+10   5.531020628997819E-1   -7.979564478690426E-1
 1.123000000000000E+10   4.731291980467753E-1   -8.487994899542115E-1
 1.124000000000000E+10   3.881094120780980E-1   -8.921252266986520E-1
 1.125000000000000E+10   2.994171252946625E-1   -9.271282668998032E-1
 1.126000000000000E+10   2.074892925422314E-1   -9.532753776409713E-1
 1.127000000000000E+10   1.134825478049907E-1   -9.697199665890383E-1
 1.128000000000000E+10   1.876129208294902E-2   -9.767264797086910E-1
 1.129000000000000E+10  -7.562593851931661E-2   -9.736879935650798E-1
 1.130000000000000E+10  -1.693463958445730E-1   -9.611590265675553E-1
 1.131000000000000E+10  -2.614404601752994E-1   -9.389779422145266E-1
 1.132000000000000E+10  -3.513253470526644E-1   -9.083483411838248E-1
 1.133000000000000E+10  -4.382101433771870E-1   -8.690916909902667E-1
 1.134000000000000E+10  -5.214687351770584E-1   -8.214935796654359E-1
 1.135000000000000E+10  -6.005546486558527E-1   -7.655334212912100E-1
 1.136000000000000E+10  -6.739857066406705E-1   -7.017300862011805E-1
 1.137000000000000E+10  -7.405867567893305E-1   -6.302315587684465E-1
 1.138000000000000E+10  -7.993241215061970E-1   -5.516287895542341E-1
 1.139000000000000E+10  -8.495009891324528E-1   -4.675188547980474E-1
 1.140000000000000E+10  -8.904328019981511E-1   -3.786262963478201E-1
 1.141000000000000E+10  -9.220276338037680E-1   -2.861077036880318E-1
 1.142000000000000E+10  -9.442420093093907E-1   -1.908667758656437E-1
 1.143000000000000E+10  -9.572193606648894E-1   -9.392506548288838E-2
 1.144000000000000E+10  -9.609918187355303E-1    4.152491865144256E-3
 1.145000000000000E+10  -9.550931053767996E-1    1.021850034279064E-1
 1.146000000000000E+10  -9.389521737272399E-1    1.995601879020972E-1
 1.147000000000000E+10  -9.127017427389569E-1    2.947227241479230E-1
 1.148000000000000E+10  -8.761705901172784E-1    3.863487164763184E-1
 1.149000000000000E+10  -8.302998693490130E-1    4.737351122279516E-1
 1.150000000000000E+10  -7.751290475824615E-1    5.552953939637241E-1
 1.151000000000000E+10  -7.122589004646649E-1    6.306558997444832E-1
 1.152000000000000E+10  -6.424515573098879E-1    6.989766446230454E-1
 1.153000000000000E+10  -5.663630620544117E-1    7.601982787645618E-1
 1.154000000000000E+10  -4.850631405928369E-1    8.135331115255621E-1
 1.155000000000000E+10  -3.991646995706652E-1    8.585641274538985E-1
 1.156000000000000E+10  -3.094892172041740E-1    8.949069745958138E-1
 1.157000000000000E+10  -2.165281067213667E-1    9.217488597882963E-1
 1.158000000000000E+10  -1.216496628843391E-1    9.386823177707934E-1
 1.159000000000000E+10  -2.562357027914865E-2    9.453484420592405E-1
 1.160000000000000E+10   6.996492071020456E-2    9.420860976260433E-1
 1.161000000000000E+10   1.638846135635053E-1    9.292384103437864E-1
 1.162000000000000E+10   2.551988257001948E-1    9.075659468264110E-1
 1.163000000000000E+10   3.430977799653578E-1    8.777053076798089E-1
 1.164000000000000E+10   4.267396812795463E-1    8.405387821392455E-1
 1.165000000000000E+10   5.055532643240013E-1    7.961620734938089E-1
 1.166000000000000E+10   5.792260425167680E-1    7.449940504939795E-1
 1.167000000000000E+10   6.469613202523216E-1    6.871619383015505E-1
 1.168000000000000E+10   7.083217424002577E-1    6.228716876927198E-1
 1.169000000000000E+10   7.631619819981104E-1    5.530826018150983E-1
 1.170000000000000E+10   8.105466577940861E-1    4.783667494341116E-1
 1.171000000000000E+10   8.509678465612148E-1    3.999577662278416E-1
 1.172000000000000E+10   8.838572510062401E-1    3.187166657743979E-1
 1.173000000000000E+10   9.095672966022434E-1    2.360606235481914E-1
 1.174000000000000E+10   9.277683566891958E-1    1.527152467800698E-1
 1.175000000000000E+10   9.386480529862641E-1    6.934164059917078E-2
 1.176000000000000E+10   9.420288776826804E-1   -1.313360635488291E-2
 1.177000000000000E+10   9.382232359019682E-1   -9.433392354745763E-2
 1.178000000000000E+10   9.270444665416060E-1   -1.741490326842690E-1
 1.179000000000000E+10   9.084239488603953E-1   -2.525221407102133E-1
 1.180000000000000E+10   8.827616668050963E-1   -3.288944553836453E-1
 1.181000000000000E+10   8.502998154739339E-1   -4.030108965579576E-1
 1.182000000000000E+10   8.112960625412117E-1   -4.744111109013138E-1
 1.183000000000000E+10   7.671430344390506E-1   -5.423698040129951E-1
 1.184000000000000E+10   7.180786190418365E-1   -6.067083451002898E-1
 1.185000000000000E+10   6.646464675217078E-1   -6.664465147506661E-1
 1.186000000000000E+10   6.074058917532824E-1   -7.214284435229220E-1
 1.187000000000000E+10   5.461575513497386E-1   -7.710936862126946E-1
 1.188000000000000E+10   4.811645569103831E-1   -8.149202454928425E-1
 1.189000000000000E+10   4.124159067697841E-1   -8.525482955505586E-1
 1.190000000000000E+10   3.399765836853204E-1   -8.838881139846986E-1
 1.191000000000000E+10   2.645264553900579E-1   -9.085824688241172E-1
 1.192000000000000E+10   1.863155247078888E-1   -9.271244481970393E-1
 1.193000000000000E+10   1.062217503193503E-1   -9.392738652320698E-1
 1.194000000000000E+10   2.517398049043884E-2   -9.454541197032166E-1
 1.195000000000000E+10  -5.607876842876666E-2   -9.453003767055214E-1
 1.196000000000000E+10  -1.368835845686753E-1   -9.390887168200551E-1
 1.197000000000000E+10  -2.168689132617107E-1   -9.261614957003048E-1
 1.198000000000000E+10  -2.950135442658380E-1   -9.064522326033946E-1
 1.199000000000000E+10  -3.714619750477764E-1   -8.794003392153399E-1
 1.200000000000000E+10  -4.458716253292320E-1   -8.449586656372761E-1
 1.201000000000000E+10  -5.177843462800478E-1   -8.025925125715363E-1
 1.202000000000000E+10  -5.873880689536487E-1   -7.525669475079743E-1
 1.203000000000000E+10  -6.533423592701531E-1   -6.952857012575374E-1
 1.204000000000000E+10  -7.150958027290657E-1   -6.313047273227594E-1
 1.205000000000000E+10  -7.716988360618858E-1   -5.613359926571813E-1
 1.206000000000000E+10  -8.224986279763564E-1   -4.861773220341344E-1
 1.207000000000000E+10  -8.666255472836196E-1   -4.067857120673258E-1
 1.208000000000000E+10  -9.030197843913397E-1   -3.233015572134975E-1
 1.209000000000000E+10  -9.310812700134036E-1   -2.360666373058093E-1
 1.210000000000000E+10  -9.501190555720928E-1   -1.456293749850754E-1
 1.211000000000000E+10  -9.592575488960102E-1   -5.224526681695804E-2
 1.212000000000000E+10  -9.589282513460549E-1    4.357848433021488E-2
 1.213000000000000E+10  -9.482660486633407E-1    1.409993367712339E-1
 1.214000000000000E+10  -9.279422911217461E-1    2.381904667392008E-1
 1.215000000000000E+10  -8.974417926778427E-1    3.346950298305325E-1
 1.216000000000000E+10  -8.573840679498611E-1    4.283273819175707E-1
 1.217000000000000E+10  -8.076356642193545E-1    5.175503054187458E-1
 1.218000000000000E+10  -7.486213866565039E-1    6.010904291424397E-1
 1.219000000000000E+10  -6.800339567038070E-1    6.773944217823378E-1
 1.220000000000000E+10  -6.024595396234680E-1    7.456268860078764E-1
 1.221000000000000E+10  -5.166812554518405E-1    8.048537590871738E-1
 1.222000000000000E+10  -4.229416410166120E-1    8.539000678166256E-1
 1.223000000000000E+10  -3.230254809304178E-1    8.929640950563306E-1
 1.224000000000000E+10  -2.176105067440509E-1    9.217474775362119E-1
 1.225000000000000E+10  -1.093150401134343E-1    9.388541248946318E-1
 1.226000000000000E+10  -5.974438339164952E-5    9.441563431570792E-1
 1.227000000000000E+10   1.074922492676310E-1    9.381279501739849E-1
 1.228000000000000E+10   2.123764148937717E-1    9.203168977834748E-1
 1.229000000000000E+10   3.130902468084175E-1    8.906018395200469E-1
 1.230000000000000E+10   4.084072238087068E-1    8.495860851754878E-1
 1.231000000000000E+10   4.976881037770172E-1    7.970839354877400E-1
 1.232000000000000E+10   5.802607635359655E-1    7.338879731176281E-1
 1.233000000000000E+10   6.554531939461038E-1    6.613015250418801E-1
 1.234000000000000E+10   7.226780272572674E-1    5.801847913676329E-1
 1.235000000000000E+10   7.808331733011840E-1    4.925132866873020E-1
 1.236000000000000E+10   8.295909253211970E-1    4.001444117169338E-1
 1.237000000000000E+10   8.677079013593678E-1    3.051087396516400E-1
 1.238000000000000E+10   8.953404092340721E-1    2.091196491766480E-1
 1.239000000000000E+10   9.117630228356844E-1    1.133428143280622E-1
 1.240000000000000E+10   9.174518716632570E-1    1.887196540854356E-2
 1.241000000000000E+10   9.124144673672625E-1   -7.386569054617798E-2
 1.242000000000000E+10   8.971933327156562E-1   -1.647497495500145E-1
 1.243000000000000E+10   8.726731462681204E-1   -2.530905978678459E-1
 1.244000000000000E+10   8.393320928295094E-1   -3.385713073906308E-1
 1.245000000000000E+10   7.983543453918446E-1   -4.201732883062538E-1
 1.246000000000000E+10   7.507374774348947E-1   -4.971582024382447E-1
 1.247000000000000E+10   6.973589864988364E-1   -5.682970472640968E-1
 1.248000000000000E+10   6.392940343144029E-1   -6.328055934126958E-1
 1.249000000000000E+10   5.771263103556176E-1   -6.900180400532007E-1
 1.250000000000000E+10   5.117293111674184E-1   -7.395713376179469E-1
