#  HZ   S   RI   R     50.00 
! Rohde & Schwarz Vector Network Analyzer 
! Rohde-Schwarz,ZNA43-4Port,1332450044101932,2.92
! Created: UTC 6/1/2026, 11:34:02 AM
! freq[Hz]                re:S11                  im:S11
 8.000000000000000E9     5.532765350030485E-1    3.681013059572186E-1
 8.010000000000000E9     5.746099565685067E-1    2.989896288120902E-1
 8.020000000000000E9     5.863962281899154E-1    2.250185360267078E-1
 8.030000000000000E9     5.877285918256562E-1    1.471121635721204E-1
 8.040000000000000E9     5.774635159581724E-1    6.656595721137408E-2
 8.050000000000000E9     5.548460852325714E-1   -1.428979474177020E-2
 8.060000000000000E9     5.192434504392613E-1   -9.290719623512861E-2
 8.070000000000000E9     4.705419832452276E-1   -1.663217281367110E-1
 8.080000000000000E9     4.089214104679300E-1   -2.313182270771733E-1
 8.090000000000000E9     3.353188240264776E-1   -2.847943064386886E-1
 8.100000000000000E9     2.511318352450612E-1   -3.237061922759848E-1
 8.110000000000000E9     1.587951478213919E-1   -3.456514269609284E-1
 8.120000000000000E9     6.188135899584177E-2   -3.487163730593738E-1
 8.130000000000000E9    -3.534466724964111E-2   -3.320819463537916E-1
 8.140000000000000E9    -1.283535228213586E-1   -2.963396086709506E-1
 8.150000000000000E9    -2.124865017998449E-1   -2.430407733415549E-1
 8.160000000000000E9    -2.834945750722127E-1   -1.747633153847507E-1
 8.170000000000000E9    -3.381809509715609E-1   -9.493964944761532E-2
 8.180000000000000E9    -3.744376434434155E-1   -7.256938028061165E-3
 8.190000000000000E9    -3.914257771604884E-1    8.440969658820335E-2
 8.200000000000000E9    -3.895262311366412E-1    1.763435946234423E-1
 8.210000000000000E9    -3.702610242921113E-1    2.651807388725082E-1
 8.220000000000000E9    -3.358102165631195E-1    3.481000697278889E-1
 8.230000000000000E9    -2.886375933204955E-1    4.225429359053000E-1
 8.240000000000000E9    -2.314408179325961E-1    4.869646111590062E-1
 8.250000000000000E9    -1.670047139235616E-1    5.399759282677056E-1
 8.260000000000000E9    -9.729766901512364E-2    5.809165786754145E-1
 8.270000000000000E9    -2.403405881010011E-2    6.094312659150395E-1
 8.280000000000000E9     5.122474810995865E-2    6.258195319117750E-1
 8.290000000000000E9     1.275067326029457E-1    6.303451878013125E-1
 8.300000000000000E9     2.035758637126291E-1    6.237069658560120E-1
 8.310000000000000E9     2.781807844403587E-1    6.068711147701579E-1
 8.320000000000000E9     3.502417938963677E-1    5.808026121381702E-1
 8.330000000000000E9     4.184288309184250E-1    5.466682435970008E-1
 8.340000000000000E9     4.818125639751309E-1    5.053952356013059E-1
 8.350000000000000E9     5.392119009364424E-1    4.578150247334023E-1
 8.360000000000000E9     5.899211058686976E-1    4.045517297597526E-1
 8.370000000000000E9     6.333593836523733E-1    3.458722295254079E-1
 8.380000000000000E9     6.690087847847224E-1    2.822322158701543E-1
 8.390000000000000E9     6.966143507362091E-1    2.139822255792517E-1
 8.400000000000000E9     7.160639437345969E-1    1.414598207040929E-1
 8.410000000000000E9     7.273740973030836E-1    6.556999255734670E-2
 8.420000000000000E9     7.303484181990716E-1   -1.268884673910835E-2
 8.430000000000000E9     7.249047964859432E-1   -9.208727299870070E-2
 8.440000000000000E9     7.110139874828243E-1   -1.712030348399299E-1
 8.450000000000000E9     6.885894063779975E-1   -2.484163461423807E-1
 8.460000000000000E9     6.572292256793228E-1   -3.225907156970854E-1
 8.470000000000000E9     6.168345590445296E-1   -3.927878382710540E-1
 8.480000000000000E9     5.672613082424690E-1   -4.578913565107329E-1
 8.490000000000000E9     5.084935896803283E-1   -5.173173297495967E-1
 8.500000000000000E9     4.408329690078416E-1   -5.703452355383899E-1
 8.510000000000000E9     3.645943573436975E-1   -6.155474991653912E-1
 8.520000000000000E9     2.810359484426122E-1   -6.523973146194637E-1
 8.530000000000000E9     1.920490046774296E-1   -6.794759651616659E-1
 8.540000000000000E9     9.928390007491478E-2   -6.959314233499372E-1
 8.550000000000000E9     4.668352013491570E-3   -7.007301417192685E-1
 8.560000000000000E9    -8.979769566061090E-2   -6.928680707753091E-1
 8.570000000000000E9    -1.822909421630536E-1   -6.719615320099511E-1
 8.580000000000000E9    -2.713819570065878E-1   -6.377200610006833E-1
 8.590000000000000E9    -3.553915332718280E-1   -5.903024450578124E-1
 8.600000000000000E9    -4.329604515769932E-1   -5.301495554134444E-1
 8.610000000000000E9    -5.026086762867958E-1   -4.584658778444059E-1
 8.620000000000000E9    -5.626389049143503E-1   -3.769516679586708E-1
 8.630000000000000E9    -6.115553100852955E-1   -2.875846746724944E-1
 8.640000000000000E9    -6.480559759913375E-1   -1.925890982669561E-1
 8.650000000000000E9    -6.709269671945979E-1   -9.424940688073459E-2
 8.660000000000000E9    -6.795047496588943E-1    5.160053557415739E-3
 8.670000000000000E9    -6.733477652339129E-1    1.037126533972094E-1
 8.680000000000000E9    -6.524963840132419E-1    1.995069217817401E-1
 8.690000000000000E9    -6.175284361623016E-1    2.910718413076405E-1
 8.700000000000000E9    -5.692505363765977E-1    3.769436044637535E-1
 8.710000000000000E9    -5.089709072198426E-1    4.556612797621446E-1
 8.720000000000000E9    -4.384349760347863E-1    5.255752849530513E-1
 8.730000000000000E9    -3.597699387339157E-1    5.852818831328888E-1
 8.740000000000000E9    -2.748572769294323E-1    6.335099375165106E-1
 8.750000000000000E9    -1.855451830245951E-1    6.693165334144539E-1
 8.760000000000000E9    -9.343630761893476E-2    6.918410290623729E-1
 8.770000000000000E9    -1.726434511469121E-4    7.008241024956521E-1
 8.780000000000000E9     9.332170697600202E-2    6.959333434513262E-1
 8.790000000000000E9     1.857153441827264E-1    6.773506485236233E-1
 8.800000000000000E9     2.754603392183503E-1    6.457153741985262E-1
 8.810000000000000E9     3.611139215509310E-1    6.014691138481422E-1
 8.820000000000000E9     4.409376685885335E-1    5.459425079909807E-1
 8.830000000000000E9     5.133170469777034E-1    4.801394159079079E-1
 8.840000000000000E9     5.762562246205156E-1    4.053137832866902E-1
 8.850000000000000E9     6.281872145243164E-1    3.227952489696972E-1
 8.860000000000000E9     6.675888576233427E-1    2.339724093643603E-1
 8.870000000000000E9     6.936955774939498E-1    1.398937878604015E-1
 8.880000000000000E9     7.056208568651690E-1    4.212166655832565E-2
 8.890000000000000E9     7.027647364312787E-1   -5.818956765628573E-2
 8.900000000000000E9     6.851556638891309E-1   -1.593064242026845E-1
 8.910000000000000E9     6.527164103294398E-1   -2.588646787469236E-1
 8.920000000000000E9     6.059056002821396E-1   -3.545050070919980E-1
 8.930000000000000E9     5.454675882401604E-1   -4.435698825447642E-1
 8.940000000000000E9     4.725455268276132E-1   -5.234564866203688E-1
 8.950000000000000E9     3.884606759817939E-1   -5.916671737877864E-1
 8.960000000000000E9     2.948151691021578E-1   -6.461678819358756E-1
 8.970000000000000E9     1.933559326747844E-1   -6.855612154330333E-1
 8.980000000000000E9     8.612974676876836E-2   -7.089174907173985E-1
 8.990000000000000E9    -2.469606618914635E-2   -7.158053288808299E-1
 9.000000000000000E9    -1.362981338453256E-1   -7.057115379271588E-1
 9.010000000000000E9    -2.462660379939291E-1   -6.796413508560361E-1
 9.020000000000000E9    -3.515943212656610E-1   -6.381979451426939E-1
 9.030000000000000E9    -4.491839139234842E-1   -5.825778901843732E-1
 9.040000000000000E9    -5.363558311800444E-1   -5.146050869889975E-1
 9.050000000000000E9    -6.115818718641864E-1   -4.360321048405564E-1
 9.060000000000000E9    -6.733275045801312E-1   -3.489602695921055E-1
 9.070000000000000E9    -7.208944624215239E-1   -2.549929896211747E-1
 9.080000000000000E9    -7.542238680919376E-1   -1.563276316181230E-1
 9.090000000000000E9    -7.734911160865102E-1   -5.474013107285771E-2
 9.100000000000000E9    -7.794092947284071E-1    4.811526582011308E-2
 9.110000000000000E9    -7.724091026810898E-1    1.500101373923335E-1
 9.120000000000000E9    -7.533928709278709E-1    2.488832825164586E-1
 9.130000000000000E9    -7.232092933302038E-1    3.428494410728734E-1
 9.140000000000000E9    -6.829505326194902E-1    4.302482477833697E-1
 9.150000000000000E9    -6.336965995636792E-1    5.098131703729645E-1
 9.160000000000000E9    -5.766743346310722E-1    5.806654950179417E-1
 9.170000000000000E9    -5.128222962188853E-1    6.425920243054869E-1
 9.180000000000000E9    -4.430682760155893E-1    6.955414177804174E-1
 9.190000000000000E9    -3.685454428455865E-1    7.397251062038553E-1
 9.200000000000000E9    -2.898958930793779E-1    7.753163123608827E-1
 9.210000000000000E9    -2.082349443272727E-1    8.023433095644374E-1
 9.220000000000000E9    -1.244395202862880E-1    8.203969017274598E-1
 9.230000000000000E9    -3.987663863077677E-2    8.294987690463840E-1
 9.240000000000000E9     4.459364637323528E-2    8.290835013898611E-1
 9.250000000000000E9     1.274928086017215E-1    8.191626418604783E-1
 9.260000000000000E9     2.075850947305798E-1    7.998497422400954E-1
 9.270000000000000E9     2.840384407470446E-1    7.711359578468635E-1
 9.280000000000000E9     3.562306826324933E-1    7.333594043015913E-1
 9.290000000000000E9     4.232447605785649E-1    6.867168135916945E-1
 9.300000000000000E9     4.842461066596193E-1    6.315815177712497E-1
 9.310000000000000E9     5.379468718285415E-1    5.684301201774778E-1
 9.320000000000000E9     5.827545028113078E-1    4.979464420192853E-1
 9.330000000000000E9     6.168580856686784E-1    4.214568576893708E-1
 9.340000000000000E9     6.381051562269752E-1    3.408022952657150E-1
 9.350000000000000E9     6.444492583250838E-1    2.588332761717291E-1
 9.360000000000000E9     6.348002428480509E-1    1.790361430668586E-1
 9.370000000000000E9     6.094536787296955E-1    1.062238741475066E-1
 9.380000000000000E9     5.703653160433432E-1    4.510138091490254E-2
 9.390000000000000E9     5.218632747272225E-1   -5.355660241679462E-5
 9.400000000000000E9     4.706094770425698E-1   -2.684327319559613E-2
 9.410000000000000E9     4.239834353608903E-1   -3.586309120933835E-2
 9.420000000000000E9     3.889876470470177E-1   -3.136000813664955E-2
 9.430000000000000E9     3.695366987797282E-1   -2.020082170135224E-2
 9.440000000000000E9     3.660942973672991E-1   -1.000924534216837E-2
 9.450000000000000E9     3.757260248242257E-1   -7.528918812941626E-3
 9.460000000000000E9     3.932370479164261E-1   -1.708319651979288E-2
 9.470000000000000E9     4.128850735017386E-1   -4.067557095022712E-2
 9.480000000000000E9     4.290967724435444E-1   -7.772047895310576E-2
 9.490000000000000E9     4.372882130167717E-1   -1.264011197898850E-1
 9.500000000000000E9     4.343609682399452E-1   -1.838531990358842E-1
 9.510000000000000E9     4.174590824965086E-1   -2.464005901800793E-1
 9.520000000000000E9     3.851498633074337E-1   -3.106092297639613E-1
 9.530000000000000E9     3.371398623230408E-1   -3.725963521523640E-1
 9.540000000000000E9     2.733599056514230E-1   -4.282717866827022E-1
 9.550000000000000E9     1.945092724418941E-1   -4.736773506601468E-1
 9.560000000000000E9     1.025116250301648E-1   -5.047122320015291E-1
 9.570000000000000E9     2.981839356234598E-4   -5.176843144455374E-1
 9.580000000000000E9    -1.081020139016195E-1   -5.098859862627875E-1
 9.590000000000000E9    -2.174902957970364E-1   -4.794865841735396E-1
 9.600000000000000E9    -3.223421935342445E-1   -4.261650580807168E-1
 9.610000000000000E9    -4.171818442076876E-1   -3.512511504327019E-1
 9.620000000000000E9    -4.966118451939355E-1   -2.575852381078691E-1
 9.630000000000000E9    -5.564838368383759E-1   -1.487869830805206E-1
 9.640000000000000E9    -5.938685437802670E-1   -2.985244533980362E-2
 9.650000000000000E9    -6.068638649950433E-1    9.386244184434052E-2
 9.660000000000000E9    -5.960398089509992E-1    2.165615248316349E-1
 9.670000000000000E9    -5.631836112534012E-1    3.333804327216877E-1
 9.680000000000000E9    -5.114860844411357E-1    4.400422429085875E-1
 9.690000000000000E9    -4.445971926438232E-1    5.338266286075415E-1
 9.700000000000000E9    -3.663001101830093E-1    6.130250157091477E-1
 9.710000000000000E9    -2.801372862395592E-1    6.768141674854498E-1
 9.720000000000000E9    -1.888740487199006E-1    7.254038815766914E-1
 9.730000000000000E9    -9.520387568271241E-2    7.589464698370404E-1
 9.740000000000000E9    -1.168711234053986E-3    7.783324605256453E-1
 9.750000000000000E9     9.158611139245293E-2    7.847466429202764E-1
 9.760000000000000E9     1.815702299871556E-1    7.794588546068379E-1
 9.770000000000000E9     2.676700719262023E-1    7.639430654183281E-1
 9.780000000000000E9     3.487064489470962E-1    7.397938505381926E-1
 9.790000000000000E9     4.243110737854970E-1    7.083839752865587E-1
 9.800000000000000E9     4.939368894804221E-1    6.710002057680616E-1
 9.810000000000000E9     5.575145199426106E-1    6.285620193024802E-1
 9.820000000000000E9     6.148886670692802E-1    5.818415603169225E-1
 9.830000000000000E9     6.663519032474742E-1    5.309035794685970E-1
 9.840000000000000E9     7.118906444445866E-1    4.762123533747552E-1
 9.850000000000000E9     7.514784457343910E-1    4.180074438786835E-1
 9.860000000000000E9     7.851160740377188E-1    3.565978127655313E-1
 9.870000000000000E9     8.129585564952441E-1    2.927740771544475E-1
 9.880000000000000E9     8.353801011754636E-1    2.272898116053972E-1
 9.890000000000000E9     8.525161797594292E-1    1.609187806361799E-1
 9.900000000000000E9     8.645547818471908E-1    9.438172805408770E-2
 9.910000000000000E9     8.716002358876522E-1    2.809454313557945E-2
 9.920000000000000E9     8.735845056346514E-1   -3.786738910509097E-2
 9.930000000000000E9     8.703460038675254E-1   -1.033918186559437E-1
 9.940000000000000E9     8.615624930108092E-1   -1.685180559081959E-1
 9.950000000000000E9     8.470591360011528E-1   -2.332751594944421E-1
 9.960000000000000E9     8.265109168170776E-1   -2.977747626157435E-1
 9.970000000000000E9     7.999590013259492E-1   -3.616936340621852E-1
 9.980000000000000E9     7.676242791286215E-1   -4.246920691848366E-1
 9.990000000000000E9     7.296675956558250E-1   -4.860606352629135E-1
 1.000000000000000E+10   6.866203416411724E-1   -5.451139947682355E-1
 1.001000000000000E+10   6.387674512170187E-1   -6.018399918810379E-1
 1.002000000000000E+10   5.858781987770492E-1   -6.548864849167898E-1
 1.003000000000000E+10   5.278010071269490E-1   -7.038707415016052E-1
 1.004000000000000E+10   4.639810522906865E-1   -7.483011687249764E-1
 1.005000000000000E+10   3.938300456857962E-1   -7.876667443852171E-1
 1.006000000000000E+10   3.166697390273316E-1   -8.208327182888301E-1
 1.007000000000000E+10   2.327812496577388E-1   -8.471700449104417E-1
 1.008000000000000E+10   1.417925464272289E-1   -8.653879944156537E-1
 1.009000000000000E+10   4.477356776080732E-2   -8.744745674030771E-1
 1.010000000000000E+10  -5.691688641896474E-2   -8.732981536881108E-1
 1.011000000000000E+10  -1.615481892577004E-1   -8.602980691887170E-1
 1.012000000000000E+10  -2.674430631276288E-1   -8.349839468762656E-1
 1.013000000000000E+10  -3.726188656075788E-1   -7.953552908663756E-1
 1.014000000000000E+10  -4.750487974714384E-1   -7.400304914757966E-1
 1.015000000000000E+10  -5.724608829566318E-1   -6.679802695664419E-1
 1.016000000000000E+10  -6.623645156843725E-1   -5.780423405611720E-1
 1.017000000000000E+10  -7.413739333684309E-1   -4.697419418076424E-1
 1.018000000000000E+10  -8.055084765565349E-1   -3.444875244503075E-1
 1.019000000000000E+10  -8.512842422125493E-1   -2.049642424985264E-1
 1.020000000000000E+10  -8.748031748013840E-1   -5.505134851276686E-2
 1.021000000000000E+10  -8.735298364406767E-1    9.948423396980076E-2
 1.022000000000000E+10  -8.460356645625606E-1    2.526905928173635E-1
 1.023000000000000E+10  -7.931163276129424E-1    3.988441173448253E-1
 1.024000000000000E+10  -7.153180149047864E-1    5.330323671817847E-1
 1.025000000000000E+10  -6.154204476569660E-1    6.507444716705848E-1
 1.026000000000000E+10  -4.963849077233877E-1    7.487665822772701E-1
 1.027000000000000E+10  -3.624537048626343E-1    8.246309562669097E-1
 1.028000000000000E+10  -2.185922563834479E-1    8.764487943744809E-1
 1.029000000000000E+10  -7.063567699389145E-2    9.038870618885934E-1
 1.030000000000000E+10   7.581792139393337E-2    9.079972969418850E-1
 1.031000000000000E+10   2.159576077820161E-1    8.904974333520783E-1
 1.032000000000000E+10   3.460346051281058E-1    8.544746765551496E-1
 1.033000000000000E+10   4.638684171720845E-1    8.023181667369109E-1
 1.034000000000000E+10   5.683342063174464E-1    7.369353771503745E-1
 1.035000000000000E+10   6.588419282148023E-1    6.605424439098390E-1
 1.036000000000000E+10   7.363318094733591E-1    5.753648634592707E-1
 1.037000000000000E+10   8.008710943746115E-1    4.831685482955242E-1
 1.038000000000000E+10   8.531030496877339E-1    3.863801937113203E-1
 1.039000000000000E+10   8.932306464254037E-1    2.869950005546703E-1
 1.040000000000000E+10   9.220104528884849E-1    1.871304829785839E-1
 1.041000000000000E+10   9.398577402816197E-1    8.868096309782067E-2
 1.042000000000000E+10   9.469440291946145E-1   -7.209361532312399E-3
 1.043000000000000E+10   9.442461366678814E-1   -9.933093687366522E-2
 1.044000000000000E+10   9.320161254828094E-1   -1.879061708907480E-1
 1.045000000000000E+10   9.112231727249848E-1   -2.725665406280947E-1
 1.046000000000000E+10   8.816652526908489E-1   -3.539530450647925E-1
 1.047000000000000E+10   8.444999185054678E-1   -4.318690733200637E-1
 1.048000000000000E+10   8.006331158148392E-1   -5.064346391801843E-1
 1.049000000000000E+10   7.503641262726551E-1   -5.769222901413273E-1
 1.050000000000000E+10   6.950048981047318E-1   -6.427812520943389E-1
 1.051000000000000E+10   6.355003866448713E-1   -7.032135128052136E-1
 1.052000000000000E+10   5.723863817497868E-1   -7.572981914985112E-1
 1.053000000000000E+10   5.062381173182440E-1   -8.047644664482094E-1
 1.054000000000000E+10   4.372458414359873E-1   -8.451644769949517E-1
 1.055000000000000E+10   3.652349694982677E-1   -8.784332763616998E-1
 1.056000000000000E+10   2.898889146275960E-1   -9.048226346730778E-1
 1.057000000000000E+10   2.110884197949190E-1   -9.241500940998501E-1
 1.058000000000000E+10   1.291142032588900E-1   -9.365336615804355E-1
 1.059000000000000E+10   4.425047498962823E-2   -9.421294573957701E-1
 1.060000000000000E+10  -4.223433743948540E-2   -9.407296884774713E-1
 1.061000000000000E+10  -1.295312951038780E-1   -9.323114471907274E-1
 1.062000000000000E+10  -2.159534117417440E-1   -9.165442514270917E-1
 1.063000000000000E+10  -3.005417787994465E-1   -8.931984270028994E-1
 1.064000000000000E+10  -3.822807992429005E-1   -8.618744566800633E-1
 1.065000000000000E+10  -4.604048616006171E-1   -8.222604071445412E-1
 1.066000000000000E+10  -5.349344244713267E-1   -7.741366778501791E-1
 1.067000000000000E+10  -6.054382439331832E-1   -7.171332883188130E-1
 1.068000000000000E+10  -6.718107485620901E-1   -6.510877815277902E-1
 1.069000000000000E+10  -7.334479570245325E-1   -5.760450234212441E-1
 1.070000000000000E+10  -7.892505007140147E-1   -4.926278365156741E-1
 1.071000000000000E+10  -8.377538524745192E-1   -4.016795565263339E-1
 1.072000000000000E+10  -8.773638890223437E-1   -3.046772426680573E-1
 1.073000000000000E+10  -9.066327603097228E-1   -2.031124875180974E-1
 1.074000000000000E+10  -9.242600855281310E-1   -9.836965129595251E-2
 1.075000000000000E+10  -9.294339443452109E-1    8.003273306449397E-3
 1.076000000000000E+10  -9.210868125198327E-1    1.153499001513151E-1
 1.077000000000000E+10  -8.993232443065123E-1    2.226542330111083E-1
 1.078000000000000E+10  -8.632013606137757E-1    3.294696394566317E-1
 1.079000000000000E+10  -8.129996348893312E-1    4.339671459124683E-1
 1.080000000000000E+10  -7.489898190321893E-1    5.345446842459509E-1
 1.081000000000000E+10  -6.715565087452281E-1    6.285961396238177E-1
 1.082000000000000E+10  -5.820525965037014E-1    7.139773147051847E-1
 1.083000000000000E+10  -4.821602212139745E-1    7.873014056309894E-1
 1.084000000000000E+10  -3.738371910849468E-1    8.469210373309496E-1
 1.085000000000000E+10  -2.588594098370477E-1    8.908773192805124E-1
 1.086000000000000E+10  -1.397361274381706E-1    9.182926160914775E-1
 1.087000000000000E+10  -1.769323681439509E-2    9.290723119463501E-1
 1.088000000000000E+10   1.056401916177332E-1    9.228120256556445E-1
 1.089000000000000E+10   2.283541634399686E-1    9.002091637731698E-1
 1.090000000000000E+10   3.483992273170915E-1    8.614902070676146E-1
 1.091000000000000E+10   4.632156824757309E-1    8.078035619121958E-1
 1.092000000000000E+10   5.699742202368154E-1    7.398466437186973E-1
 1.093000000000000E+10   6.658235685783235E-1    6.597436829360150E-1
 1.094000000000000E+10   7.491560642454559E-1    5.694398473630903E-1
 1.095000000000000E+10   8.179924841493713E-1    4.711678879870870E-1
 1.096000000000000E+10   8.722217290637266E-1    3.664107070472795E-1
 1.097000000000000E+10   9.119130435249815E-1    2.571850793669852E-1
 1.098000000000000E+10   9.370665533980646E-1    1.445668930253544E-1
 1.099000000000000E+10   9.483807738145783E-1    2.974710390552994E-2
 1.100000000000000E+10   9.459350607565844E-1   -8.566008005166871E-2
 1.101000000000000E+10   9.301546650616815E-1   -1.998053973938359E-1
 1.102000000000000E+10   9.009038331959714E-1   -3.107807236620239E-1
 1.103000000000000E+10   8.594734939656051E-1   -4.163551321264030E-1
 1.104000000000000E+10   8.062936819280032E-1   -5.145746679202551E-1
 1.105000000000000E+10   7.428175034511462E-1   -6.035448516870944E-1
 1.106000000000000E+10   6.703323217182170E-1   -6.831513335584289E-1
 1.107000000000000E+10   5.894103245264369E-1   -7.522829842929574E-1
 1.108000000000000E+10   5.004875525914660E-1   -8.105283073256364E-1
 1.109000000000000E+10   4.034549628416600E-1   -8.556526466145763E-1
 1.110000000000000E+10   3.028415824994384E-1   -8.786008951904442E-1
 1.111000000000000E+10   2.345410630906697E-1   -8.915123869525807E-1
 1.112000000000000E+10   1.449361324953937E-1   -9.361206875965864E-1
 1.113000000000000E+10   3.554076564885754E-2   -9.549662134825112E-1
 1.114000000000000E+10  -7.297119039033234E-2   -9.550588902172468E-1
 1.115000000000000E+10  -1.780231417861677E-1   -9.412526764805678E-1
 1.116000000000000E+10  -2.792883144707020E-1   -9.149960647951261E-1
 1.117000000000000E+10  -3.757655949328015E-1   -8.772499029480774E-1
 1.118000000000000E+10  -4.670943998526739E-1   -8.295725053803792E-1
 1.119000000000000E+10  -5.526410665936116E-1   -7.721665283765645E-1
 1.120000000000000E+10  -6.320496370021733E-1   -7.056929170332560E-1
 1.121000000000000E+10  -7.044399306378574E-1   -6.307714044533129E-1
 1.122000000000000E+10  -7.687140815536786E-1   -5.484458938373760E-1
 1.123000000000000E+10  -8.236101784859858E-1   -4.593713113745096E-1
 1.124000000000000E+10  -8.677391157545528E-1   -3.646145716575081E-1
 1.125000000000000E+10  -9.007396433405173E-1   -2.659031066106706E-1
 1.126000000000000E+10  -9.215890154149431E-1   -1.644853003361572E-1
 1.127000000000000E+10  -9.305791437234838E-1   -6.174194017765458E-2
 1.128000000000000E+10  -9.277340465321978E-1    4.137081106273279E-2
 1.129000000000000E+10  -9.137365433419952E-1    1.436220786887075E-1
 1.130000000000000E+10  -8.883326763695321E-1    2.441040493606375E-1
 1.131000000000000E+10  -8.523428055296468E-1    3.413616428255227E-1
 1.132000000000000E+10  -8.059473358288995E-1    4.345741014340377E-1
 1.133000000000000E+10  -7.495512152948579E-1    5.220281746479237E-1
 1.134000000000000E+10  -6.838077309225503E-1    6.023103189151690E-1
 1.135000000000000E+10  -6.096837659408908E-1    6.741482659286048E-1
 1.136000000000000E+10  -5.281276921538336E-1    7.363403638213105E-1
 1.137000000000000E+10  -4.409237880637546E-1    7.883078814990869E-1
 1.138000000000000E+10  -3.492397376583021E-1    8.298747497545873E-1
 1.139000000000000E+10  -2.541375222245393E-1    8.610039680796383E-1
 1.140000000000000E+10  -1.568624784115088E-1    8.818296181925763E-1
 1.141000000000000E+10  -5.838283596058604E-2    8.924294069823381E-1
 1.142000000000000E+10   4.028502610809892E-2    8.926422025358678E-1
 1.143000000000000E+10   1.378921446018234E-1    8.821633019033448E-1
 1.144000000000000E+10   2.334494086637096E-1    8.611976235356019E-1
 1.145000000000000E+10   3.255192289517386E-1    8.297719449678986E-1
 1.146000000000000E+10   4.126400611781909E-1    7.887905650747056E-1
 1.147000000000000E+10   4.941841984039843E-1    7.388404247981974E-1
 1.148000000000000E+10   5.697059176388831E-1    6.811683931826138E-1
 1.149000000000000E+10   6.381816261627918E-1    6.162212350794491E-1
 1.150000000000000E+10   6.995871824306663E-1    5.454715597771138E-1
 1.151000000000000E+10   7.533975240571493E-1    4.694184031912028E-1
 1.152000000000000E+10   7.989362779059329E-1    3.887618853012920E-1
 1.153000000000000E+10   8.358153092515852E-1    3.042440007065512E-1
 1.154000000000000E+10   8.636836926248813E-1    2.165683251290083E-1
 1.155000000000000E+10   8.818993399138079E-1    1.268358358886738E-1
 1.156000000000000E+10   8.904046504306655E-1    3.561510702879412E-2
 1.157000000000000E+10   8.891177717327067E-1   -5.543138918413273E-2
 1.158000000000000E+10   8.785275028522794E-1   -1.452541051817530E-1
 1.159000000000000E+10   8.588524629360355E-1   -2.331812814480041E-1
 1.160000000000000E+10   8.312207072031111E-1   -3.184422446708305E-1
 1.161000000000000E+10   7.955568578510671E-1   -3.999923603780579E-1
 1.162000000000000E+10   7.524108595662611E-1   -4.776279841687608E-1
 1.163000000000000E+10   7.017279452767541E-1   -5.505168939348354E-1
 1.164000000000000E+10   6.436319023410366E-1   -6.178708770083848E-1
 1.165000000000000E+10   5.785819020604548E-1   -6.790865650778716E-1
 1.166000000000000E+10   5.066963899392786E-1   -7.331423737418915E-1
 1.167000000000000E+10   4.290585507736911E-1   -7.794503564733933E-1
 1.168000000000000E+10   3.466682808312013E-1   -8.176286569163592E-1
 1.169000000000000E+10   2.605545840724760E-1   -8.476221719132976E-1
 1.170000000000000E+10   1.718901137805617E-1   -8.689619489004646E-1
 1.171000000000000E+10   8.144511496324432E-2   -8.815258495544733E-1
 1.172000000000000E+10  -9.559606475176423E-3   -8.849011987902435E-1
 1.173000000000000E+10  -1.005295728825069E-1   -8.788570720083295E-1
 1.174000000000000E+10  -1.907959282957203E-1   -8.631016941877903E-1
 1.175000000000000E+10  -2.792085610759446E-1   -8.371214194269083E-1
 1.176000000000000E+10  -3.653878804184462E-1   -8.009964751876513E-1
 1.177000000000000E+10  -4.482793613118300E-1   -7.546426419295692E-1
 1.178000000000000E+10  -5.267246130820373E-1   -6.985980125649794E-1
 1.179000000000000E+10  -5.994757859287225E-1   -6.333064385003760E-1
 1.180000000000000E+10  -6.654381230750835E-1   -5.598591000127083E-1
 1.181000000000000E+10  -7.234181576245525E-1   -4.792508471837258E-1
 1.182000000000000E+10  -7.722117928440935E-1   -3.928487643672899E-1
 1.183000000000000E+10  -8.113107081369454E-1   -3.006956910201625E-1
 1.184000000000000E+10  -8.387708880476937E-1   -2.040276193018604E-1
 1.185000000000000E+10  -8.541205273873543E-1   -1.040891512864453E-1
 1.186000000000000E+10  -8.569772806821265E-1   -1.536947991903648E-3
 1.187000000000000E+10  -8.468644738592886E-1    1.016128086418041E-1
 1.188000000000000E+10  -8.239133660468095E-1    2.039953262235291E-1
 1.189000000000000E+10  -7.886755198094727E-1    3.034678523757579E-1
 1.190000000000000E+10  -7.420571096739631E-1    3.982813729341633E-1
 1.191000000000000E+10  -6.846733958428252E-1    4.873102534195867E-1
 1.192000000000000E+10  -6.169887671454872E-1    5.684218021043868E-1
 1.193000000000000E+10  -5.400891123129906E-1    6.398827314216173E-1
 1.194000000000000E+10  -4.549346550675819E-1    7.006747888982398E-1
 1.195000000000000E+10  -3.626597247853847E-1    7.495846477388083E-1
 1.196000000000000E+10  -2.642314960686074E-1    7.858610951834449E-1
 1.197000000000000E+10  -1.614078312081318E-1    8.088410660410811E-1
 1.198000000000000E+10  -5.623389091613196E-2    8.192026357049982E-1
 1.199000000000000E+10   4.912200181598175E-2    8.166310864205697E-1
 1.200000000000000E+10   1.526928015953013E-1    8.018602513250163E-1
 1.201000000000000E+10   2.521037267000206E-1    7.759132207198808E-1
 1.202000000000000E+10   3.459039810208462E-1    7.393279097536265E-1
 1.203000000000000E+10   4.326040220612274E-1    6.929271654007298E-1
 1.204000000000000E+10   5.112110044795550E-1    6.377478699683526E-1
 1.205000000000000E+10   5.813329152930481E-1    5.744064734918261E-1
 1.206000000000000E+10   6.423452026970590E-1    5.034939618396013E-1
 1.207000000000000E+10   6.942459878607660E-1    4.260757830012807E-1
 1.208000000000000E+10   7.369517716597211E-1    3.433112715734093E-1
 1.209000000000000E+10   7.701322574748198E-1    2.569252820602148E-1
 1.210000000000000E+10   7.940612089423522E-1    1.686417786832826E-1
 1.211000000000000E+10   8.087167077824889E-1    7.984504257894198E-2
 1.212000000000000E+10   8.142010863847500E-1   -7.954446575048129E-3
 1.213000000000000E+10   8.107060496849272E-1   -9.349148597347427E-2
 1.214000000000000E+10   7.981804559055217E-1   -1.764878870886270E-1
 1.215000000000000E+10   7.770719569139658E-1   -2.559921198888676E-1
 1.216000000000000E+10   7.475565235882305E-1   -3.320835148561955E-1
 1.217000000000000E+10   7.102864022372418E-1   -4.042721820867807E-1
 1.218000000000000E+10   6.658941253191706E-1   -4.723015428650740E-1
 1.219000000000000E+10   6.155572660769134E-1   -5.358567074482690E-1
 1.220000000000000E+10   5.601300320714240E-1   -5.943683538982054E-1
 1.221000000000000E+10   5.003932280745795E-1   -6.471576461393572E-1
 1.222000000000000E+10   4.375828663080956E-1   -6.939022996845918E-1
 1.223000000000000E+10   3.722779617149032E-1   -7.336827343684671E-1
 1.224000000000000E+10   3.049894590409072E-1   -7.658614314611529E-1
 1.225000000000000E+10   2.357807853843994E-1   -7.908949322615825E-1
 1.226000000000000E+10   1.649724503408409E-1   -8.084373991830091E-1
 1.227000000000000E+10   9.193677117382397E-2   -8.184906803161122E-1
 1.228000000000000E+10   1.789617578467347E-2   -8.214102173062471E-1
 1.229000000000000E+10  -5.686810928290763E-2   -8.177201352441762E-1
 1.230000000000000E+10  -1.313517789975792E-1   -8.080106569136984E-1
 1.231000000000000E+10  -2.044664108028307E-1   -7.930405976328699E-1
 1.232000000000000E+10  -2.744859114377362E-1   -7.745788730723183E-1
 1.233000000000000E+10  -3.427873863055910E-1   -7.562470999444613E-1
 1.234000000000000E+10  -4.221130167227027E-1   -7.348447843332417E-1
 1.235000000000000E+10  -4.982804013913857E-1   -6.859507368125030E-1
 1.236000000000000E+10  -5.549918838796007E-1   -6.318080629564626E-1
 1.237000000000000E+10  -6.051170932454220E-1   -5.768652120626165E-1
 1.238000000000000E+10  -6.504955616684975E-1   -5.178738546680430E-1
 1.239000000000000E+10  -6.918928085933624E-1   -4.541081982168465E-1
 1.240000000000000E+10  -7.283692062573874E-1   -3.856748194084239E-1
 1.241000000000000E+10  -7.598718453267350E-1   -3.132020747651521E-1
 1.242000000000000E+10  -7.854501227010076E-1   -2.375016338866550E-1
 1.243000000000000E+10  -8.045665362626947E-1   -1.597030493653705E-1
 1.244000000000000E+10  -8.164199693551475E-1   -8.106670247415250E-2
 1.245000000000000E+10  -8.203359953031257E-1   -2.072019008432349E-3
 1.246000000000000E+10  -8.157771058548127E-1    7.695896401427636E-2
 1.247000000000000E+10  -8.024379882743955E-1    1.551173150186610E-1
 1.248000000000000E+10  -7.802183603909767E-1    2.326534215202109E-1
 1.249000000000000E+10  -7.490300087640345E-1    3.092565926816847E-1
 1.250000000000000E+10  -7.090479133167361E-1    3.838437710597624E-1
