#  HZ   S   RI   R     50.00 
! Rohde & Schwarz Vector Network Analyzer 
! Rohde-Schwarz,ZNA43-4Port,1332450044101932,2.92
! Created: UTC 6/1/2026, 11:35:12 AM
! freq[Hz]                re:S11                  im:S11
 8.000000000000000E9    -9.268543703803270E-1    2.459881335993476E-1
 8.010000000000000E9    -8.797712153057581E-1    3.895735013919678E-1
 8.020000000000000E9    -8.171114047348250E-1    5.145252377311523E-1
 8.030000000000000E9    -7.432884474053824E-1    6.212967565079057E-1
 8.040000000000000E9    -6.612826469541305E-1    7.112167208721006E-1
 8.050000000000000E9    -5.733993071183207E-1    7.856454654295908E-1
 8.060000000000000E9    -4.811510336078259E-1    8.453243912107476E-1
 8.070000000000000E9    -3.864134375471794E-1    8.922770635762100E-1
 8.080000000000000E9    -2.906654227353909E-1    9.275959564086262E-1
 8.090000000000000E9    -1.949922581243977E-1    9.520695684372347E-1
 8.100000000000000E9    -1.003070206087031E-1    9.671909304765033E-1
 8.110000000000000E9    -7.985036799635137E-3    9.738084106335150E-1
 8.120000000000000E9     8.133396993576829E-2    9.721232353449379E-1
 8.130000000000000E9     1.677277757147990E-1    9.625385189137996E-1
 8.140000000000000E9     2.507996835160586E-1    9.455555153968872E-1
 8.150000000000000E9     3.308850958817351E-1    9.211217778834944E-1
 8.160000000000000E9     4.074353936211529E-1    8.895571395927827E-1
 8.170000000000000E9     4.809581704047576E-1    8.510588946381673E-1
 8.180000000000000E9     5.509214629103301E-1    8.061061990461271E-1
 8.190000000000000E9     6.173932938570506E-1    7.556075912542076E-1
 8.200000000000000E9     6.794240977166432E-1    6.997249064046311E-1
 8.210000000000000E9     7.371064300730401E-1    6.396156698910110E-1
 8.220000000000000E9     7.896157206556923E-1    5.751017971751313E-1
 8.230000000000000E9     8.363924069272773E-1    5.067381581181745E-1
 8.240000000000000E9     8.769064363744735E-1    4.341142924715905E-1
 8.250000000000000E9     9.111287158944794E-1    3.577013263251783E-1
 8.260000000000000E9     9.383549338763335E-1    2.769209297283716E-1
 8.270000000000000E9     9.580084358195070E-1    1.918742278801926E-1
 8.280000000000000E9     9.699758004252046E-1    1.028018278793803E-1
 8.290000000000000E9     9.733646175182761E-1    9.873820096172150E-3
 8.300000000000000E9     9.673031538602055E-1   -8.526172358096293E-2
 8.310000000000000E9     9.494907863994093E-1   -1.810402161683200E-1
 8.320000000000000E9     9.189100753919784E-1   -2.653368934033152E-1
 8.330000000000000E9     9.002080959979260E-1   -3.491308870984857E-1
 8.340000000000000E9     8.651134069731765E-1   -4.432154827515856E-1
 8.350000000000000E9     8.154014371269356E-1   -5.325523517448719E-1
 8.360000000000000E9     7.536098490430384E-1   -6.167382934757832E-1
 8.370000000000000E9     6.799543778906434E-1   -6.950103388215473E-1
 8.380000000000000E9     5.948993773449277E-1   -7.664324050244077E-1
 8.390000000000000E9     4.991018696248881E-1   -8.296588220434528E-1
 8.400000000000000E9     3.934758877618021E-1   -8.829743712168943E-1
 8.410000000000000E9     2.795292644216479E-1   -9.248425184609372E-1
 8.420000000000000E9     1.594571324934461E-1   -9.532165763227667E-1
 8.430000000000000E9     3.512538757873405E-2   -9.665736447945521E-1
 8.440000000000000E9    -9.116407983465501E-2   -9.635938551499000E-1
 8.450000000000000E9    -2.174383794410878E-1   -9.433657303307773E-1
 8.460000000000000E9    -3.415750407686216E-1   -9.048158282681269E-1
 8.470000000000000E9    -4.615647903976065E-1   -8.479211147449189E-1
 8.480000000000000E9    -5.748310621214018E-1   -7.728744134310511E-1
 8.490000000000000E9    -6.785296852970564E-1   -6.807238569981537E-1
 8.500000000000000E9    -7.697455690724649E-1   -5.735237839167262E-1
 8.510000000000000E9    -8.454328242810916E-1   -4.541529267834407E-1
 8.520000000000000E9    -9.035652822407532E-1   -3.259846371408014E-1
 8.530000000000000E9    -9.427223567779077E-1   -1.922944103422980E-1
 8.540000000000000E9    -9.618669060176823E-1   -5.607839260316072E-2
 8.550000000000000E9    -9.608831595342013E-1    7.955252585082397E-2
 8.560000000000000E9    -9.402971184293660E-1    2.124592614691091E-1
 8.570000000000000E9    -9.007484080053113E-1    3.403429274603794E-1
 8.580000000000000E9    -8.438108668398598E-1    4.610230315841526E-1
 8.590000000000000E9    -7.712355232686793E-1    5.725130529596424E-1
 8.600000000000000E9    -6.853016953568793E-1    6.728188257765271E-1
 8.610000000000000E9    -5.885920645694319E-1    7.600630828912849E-1
 8.620000000000000E9    -4.837993677702244E-1    8.328014004439082E-1
 8.630000000000000E9    -3.731806595321102E-1    8.904678937989301E-1
 8.640000000000000E9    -2.585482858886010E-1    9.320050721915255E-1
 8.650000000000000E9    -1.415200225509025E-1    9.576231130017002E-1
 8.660000000000000E9    -2.390676133964437E-2    9.676355396121828E-1
 8.670000000000000E9     9.341125261686503E-2    9.624311817029395E-1
 8.680000000000000E9     2.090130331145316E-1    9.426438252762551E-1
 8.690000000000000E9     3.213665825560507E-1    9.095710132481423E-1
 8.700000000000000E9     4.287981636339577E-1    8.638010526813770E-1
 8.710000000000000E9     5.298059165122126E-1    8.065066781882734E-1
 8.720000000000000E9     6.223245372229711E-1    7.392801741131010E-1
 8.730000000000000E9     7.055554842746538E-1    6.629044154869083E-1
 8.740000000000000E9     7.782643117147064E-1    5.782830743263794E-1
 8.750000000000000E9     8.398571258417461E-1    4.862009773903848E-1
 8.760000000000000E9     8.894510908605537E-1    3.870642905167882E-1
 8.770000000000000E9     9.269805293307195E-1    2.819535938674490E-1
 8.780000000000000E9     9.517360782323125E-1    1.715531236407561E-1
 8.790000000000000E9     9.635443693695581E-1    5.744250044829515E-2
 8.800000000000000E9     9.624365696710537E-1   -5.850769334723641E-2
 8.810000000000000E9     9.480058132614239E-1   -1.742959996769295E-1
 8.820000000000000E9     9.204561436210357E-1   -2.878234573497441E-1
 8.830000000000000E9     8.798325620744439E-1   -3.972789882743687E-1
 8.840000000000000E9     8.264991522808216E-1   -5.004223168896439E-1
 8.850000000000000E9     7.606895564807684E-1   -5.961003894645363E-1
 8.860000000000000E9     6.828860349781540E-1   -6.829292701837144E-1
 8.870000000000000E9     5.937145996086545E-1   -7.599919131204049E-1
 8.880000000000000E9     4.942894748976638E-1   -8.261125597213573E-1
 8.890000000000000E9     3.862200774439316E-1   -8.800312706310504E-1
 8.900000000000000E9     2.709930129503825E-1   -9.210165599191359E-1
 8.910000000000000E9     1.514954740904522E-1   -9.478665809904457E-1
 8.920000000000000E9     2.999882734128081E-2   -9.600242907101081E-1
 8.930000000000000E9    -9.115133433404572E-2   -9.568401024919168E-1
 8.940000000000000E9    -2.098951276186702E-1   -9.386027214341761E-1
 8.950000000000000E9    -3.240659395682801E-1   -9.056223268596706E-1
 8.960000000000000E9    -4.322465097646709E-1   -8.582604308038797E-1
 8.970000000000000E9    -5.333373262887694E-1   -7.978685900353508E-1
 8.980000000000000E9    -6.261927027192729E-1   -7.256259079808982E-1
 8.990000000000000E9    -7.096695395700079E-1   -6.428834116110388E-1
 9.000000000000000E9    -7.822183508881438E-1   -5.515842868423713E-1
 9.010000000000000E9    -8.436397324856055E-1   -4.539898405589180E-1
 9.020000000000000E9    -8.928429780490534E-1   -3.518435727575534E-1
 9.030000000000000E9    -9.290654169875195E-1   -2.472560440393598E-1
 9.040000000000000E9    -9.523604342020595E-1   -1.422426230581736E-1
 9.050000000000000E9    -9.630890919956077E-1   -3.770911233007788E-2
 9.060000000000000E9    -9.618496183941535E-1    6.515023165515073E-2
 9.070000000000000E9    -9.490227808727040E-1    1.657335068544378E-1
 9.080000000000000E9    -9.258769688076026E-1    2.632358046439615E-1
 9.090000000000000E9    -8.931601394966702E-1    3.570495231905520E-1
 9.100000000000000E9    -8.519154715469438E-1    4.466836011180769E-1
 9.110000000000000E9    -8.030810823404799E-1    5.308349016864172E-1
 9.120000000000000E9    -7.477946667048473E-1    6.087038866955330E-1
 9.130000000000000E9    -6.870213014634423E-1    6.792808862668478E-1
 9.140000000000000E9    -6.217775226136484E-1    7.418789853569556E-1
 9.150000000000000E9    -5.526925283267697E-1    7.963155467195566E-1
 9.160000000000000E9    -4.806651659558228E-1    8.425419869998898E-1
 9.170000000000000E9    -4.060666441941135E-1    8.809620191870523E-1
 9.180000000000000E9    -3.292621088741690E-1    9.119705317165324E-1
 9.190000000000000E9    -2.506351131785479E-1    9.361899707268020E-1
 9.200000000000000E9    -1.703800132954415E-1    9.539615120303581E-1
 9.210000000000000E9    -8.915452249777020E-2    9.654251079097736E-1
 9.220000000000000E9    -7.543592590064861E-3    9.703128135492471E-1
 9.230000000000000E9     7.362260029917100E-2    9.689313068361315E-1
 9.240000000000000E9     1.536506210284814E-1    9.608038534910266E-1
 9.250000000000000E9     2.318109342027717E-1    9.461272504465785E-1
 9.260000000000000E9     3.072025819826931E-1    9.251432504146407E-1
 9.270000000000000E9     3.798109497377730E-1    8.980159762176252E-1
 9.280000000000000E9     4.494696554079649E-1    8.651107056923065E-1
 9.290000000000000E9     5.162517373983414E-1    8.265625906837273E-1
 9.300000000000000E9     5.802761071603032E-1    7.826995122082271E-1
 9.310000000000000E9     6.413254377648320E-1    7.334542988722306E-1
 9.320000000000000E9     6.992240555940259E-1    6.790246800574153E-1
 9.330000000000000E9     7.535323291684920E-1    6.195450223485407E-1
 9.340000000000000E9     8.034639997620706E-1    5.550560295407072E-1
 9.350000000000000E9     8.480850419110969E-1    4.857880615197555E-1
 9.360000000000000E9     8.866611121684975E-1    4.119101333285376E-1
 9.370000000000000E9     9.188068772749434E-1    3.343007759226412E-1
 9.380000000000000E9     9.440059144392047E-1    2.529022009434057E-1
 9.390000000000000E9     9.618712390778932E-1    1.683157647683725E-1
 9.400000000000000E9     9.723576219010875E-1    8.051024775255153E-2
 9.410000000000000E9     9.747279374599156E-1   -9.981773970837982E-3
 9.420000000000000E9     9.689647227114029E-1   -1.030163000721436E-1
 9.430000000000000E9     9.538133429368613E-1   -1.983290888606626E-1
 9.440000000000000E9     9.280915909638261E-1   -2.948310396658779E-1
 9.450000000000000E9     8.910008640928084E-1   -3.913974904869842E-1
 9.460000000000000E9     8.416110429807843E-1   -4.863372932753018E-1
 9.470000000000000E9     7.791150900224814E-1   -5.783305956300355E-1
 9.480000000000000E9     7.039030728558680E-1   -6.648424104053751E-1
 9.490000000000000E9     6.158118948258953E-1   -7.439027790824210E-1
 9.500000000000000E9     5.158186939967155E-1   -8.140230183487147E-1
 9.510000000000000E9     4.039999696843804E-1   -8.721659760871190E-1
 9.520000000000000E9     2.812582427413726E-1   -9.164256832964502E-1
 9.530000000000000E9     1.495684080977335E-1   -9.446125894103541E-1
 9.540000000000000E9     1.085119707545750E-2   -9.539880754424317E-1
 9.550000000000000E9    -1.320845792315331E-1   -9.420397017016062E-1
 9.560000000000000E9    -2.750448507668295E-1   -9.070070196624942E-1
 9.570000000000000E9    -4.135913780593918E-1   -8.482035380850009E-1
 9.580000000000000E9    -5.428992454982492E-1   -7.667266484904853E-1
 9.590000000000000E9    -6.582911919251229E-1   -6.647544781236989E-1
 9.600000000000000E9    -7.557542741364928E-1   -5.451874571989636E-1
 9.610000000000000E9    -8.328002088245716E-1   -4.121766875877666E-1
 9.620000000000000E9    -8.869861638653592E-1   -2.700858442672984E-1
 9.630000000000000E9    -9.173072611335010E-1   -1.229725854785338E-1
 9.640000000000000E9    -9.239463342858214E-1    2.459126817074028E-2
 9.650000000000000E9    -9.069885926713821E-1    1.684347509536229E-1
 9.660000000000000E9    -8.690697067073426E-1    3.040906058357260E-1
 9.670000000000000E9    -8.129638144320636E-1    4.288555701803293E-1
 9.680000000000000E9    -7.421868335588018E-1    5.402267734912538E-1
 9.690000000000000E9    -6.602429303212937E-1    6.371242771169336E-1
 9.700000000000000E9    -5.701873692039788E-1    7.190405062040049E-1
 9.710000000000000E9    -4.750269821086612E-1    7.858669246323788E-1
 9.720000000000000E9    -3.766667360816612E-1    8.385570537660033E-1
 9.730000000000000E9    -2.770723465938056E-1    8.773867545634543E-1
 9.740000000000000E9    -1.775528042405731E-1    9.032743194333637E-1
 9.750000000000000E9    -7.935247486759807E-2    9.171096018043849E-1
 9.760000000000000E9     1.648829328015317E-2    9.200797705088435E-1
 9.770000000000000E9     1.089507027219280E-1    9.133479943363628E-1
 9.780000000000000E9     1.968094442164922E-1    8.982018351339843E-1
 9.790000000000000E9     2.798667117989904E-1    8.759811130454577E-1
 9.800000000000000E9     3.574662948353530E-1    8.478842721567204E-1
 9.810000000000000E9     4.295729878904753E-1    8.148572440681632E-1
 9.820000000000000E9     4.960205174678210E-1    7.775587069967833E-1
 9.830000000000000E9     5.573100851972467E-1    7.360715546374496E-1
 9.840000000000000E9     6.134122614799050E-1    6.907607107369301E-1
 9.850000000000000E9     6.644774784945469E-1    6.416982059364906E-1
 9.860000000000000E9     7.104846424215177E-1    5.891528453493704E-1
 9.870000000000000E9     7.515020709243586E-1    5.336775470613018E-1
 9.880000000000000E9     7.879342351495410E-1    4.761181718432524E-1
 9.890000000000000E9     8.197920733609445E-1    4.172152332377542E-1
 9.900000000000000E9     8.471614302941286E-1    3.576867868063401E-1
 9.910000000000000E9     8.702831535539804E-1    2.980622652409639E-1
 9.920000000000000E9     8.891999035806282E-1    2.384558152476315E-1
 9.930000000000000E9     9.038592711213305E-1    1.791264490280093E-1
 9.940000000000000E9     9.142019225837906E-1    1.198099891672783E-1
 9.950000000000000E9     9.201316404390368E-1    6.025895377548739E-2
 9.960000000000000E9     9.215499715267037E-1    3.670152347825276E-4
 9.970000000000000E9     9.184943215833200E-1   -6.006009337463897E-2
 9.980000000000000E9     9.112430701721342E-1   -1.208743359587145E-1
 9.990000000000000E9     8.998651268691873E-1   -1.815250399737221E-1
 1.000000000000000E+10   8.849409203902828E-1   -2.415520717039669E-1
 1.001000000000000E+10   8.668381522379058E-1   -3.006512016364487E-1
 1.002000000000000E+10   8.455175754485268E-1   -3.581420610383680E-1
 1.003000000000000E+10   8.210743533579885E-1   -4.138008129478516E-1
 1.004000000000000E+10   7.932887551517811E-1   -4.675386441020382E-1
 1.005000000000000E+10   7.617985321358393E-1   -5.195744352771967E-1
 1.006000000000000E+10   7.258754268915193E-1   -5.698493381053225E-1
 1.007000000000000E+10   6.853263293799123E-1   -6.183647689156064E-1
 1.008000000000000E+10   6.394266041563307E-1   -6.650771864234900E-1
 1.009000000000000E+10   5.883395859415985E-1   -7.100241196228071E-1
 1.010000000000000E+10   5.325426926354665E-1   -7.525019953016369E-1
 1.011000000000000E+10   4.721585831107601E-1   -7.920868733162518E-1
 1.012000000000000E+10   4.084679635504799E-1   -8.282603570420927E-1
 1.013000000000000E+10   3.413750462992304E-1   -8.601964867260640E-1
 1.014000000000000E+10   2.714004502619421E-1   -8.872675445100946E-1
 1.015000000000000E+10   1.986599834469276E-1   -9.088018003201745E-1
 1.016000000000000E+10   1.225138610319881E-1   -9.240654841005778E-1
 1.017000000000000E+10   4.261883668202828E-2   -9.323407214330235E-1
 1.018000000000000E+10  -4.104672374907814E-2   -9.325479401355753E-1
 1.019000000000000E+10  -1.283827751114674E-1   -9.242850494089575E-1
 1.020000000000000E+10  -2.191312172534957E-1   -9.066022756120315E-1
 1.021000000000000E+10  -3.118420462314834E-1   -8.790508927115526E-1
 1.022000000000000E+10  -4.048688319950420E-1   -8.409608993289324E-1
 1.023000000000000E+10  -4.959342346674758E-1   -7.926490491321342E-1
 1.024000000000000E+10  -5.833957262216506E-1   -7.338994906189260E-1
 1.025000000000000E+10  -6.648252017777767E-1   -6.645870206000473E-1
 1.026000000000000E+10  -7.390156935766468E-1   -5.846692519517124E-1
 1.027000000000000E+10  -8.041890798463113E-1   -4.940949041174385E-1
 1.028000000000000E+10  -8.588207122132379E-1   -3.925238793166031E-1
 1.029000000000000E+10  -9.010458458572256E-1   -2.800464518214960E-1
 1.030000000000000E+10  -9.294248288384378E-1   -1.579972041713751E-1
 1.031000000000000E+10  -9.419022517652335E-1   -2.851236047977035E-2
 1.032000000000000E+10  -9.371613816162839E-1    1.052329596614983E-1
 1.033000000000000E+10  -9.142821018589522E-1    2.392157725226902E-1
 1.034000000000000E+10  -8.732994019098147E-1    3.695333068984388E-1
 1.035000000000000E+10  -8.142767166387646E-1    4.927212262278802E-1
 1.036000000000000E+10  -7.387140778459502E-1    6.051823364589812E-1
 1.037000000000000E+10  -6.474988678085635E-1    7.048840828964731E-1
 1.038000000000000E+10  -5.427925136935462E-1    7.896598508248774E-1
 1.039000000000000E+10  -4.262859830328303E-1    8.581862296970380E-1
 1.040000000000000E+10  -3.012516714854664E-1    9.096196860965400E-1
 1.041000000000000E+10  -1.705707810530307E-1    9.433678793255990E-1
 1.042000000000000E+10  -3.779376839368182E-2    9.593086950784554E-1
 1.043000000000000E+10   9.320905071062112E-2    9.578176270563875E-1
 1.044000000000000E+10   2.194009265680099E-1    9.399425045692227E-1
 1.045000000000000E+10   3.378465928734735E-1    9.072862921252319E-1
 1.046000000000000E+10   4.473429828549526E-1    8.609169508268495E-1
 1.047000000000000E+10   5.466399602732571E-1    8.029963979670940E-1
 1.048000000000000E+10   6.357919142603327E-1    7.350773755681121E-1
 1.049000000000000E+10   7.146405366601867E-1    6.578257260440787E-1
 1.050000000000000E+10   7.832667263586240E-1    5.735759024968089E-1
 1.051000000000000E+10   8.414561337732620E-1    4.840692010282405E-1
 1.052000000000000E+10   8.891729404984966E-1    3.907351981110311E-1
 1.053000000000000E+10   9.266120735209319E-1    2.959171300746337E-1
 1.054000000000000E+10   9.535729543187291E-1    2.012975598683386E-1
 1.055000000000000E+10   9.703917265894034E-1    1.080879020889779E-1
 1.056000000000000E+10   9.776953020970540E-1    1.717163331520567E-2
 1.057000000000000E+10   9.752934745741387E-1   -7.169615675961097E-2
 1.058000000000000E+10   9.640947932639942E-1   -1.578743776157490E-1
 1.059000000000000E+10   9.451942109957804E-1   -2.418297344313351E-1
 1.060000000000000E+10   9.186678783320740E-1   -3.235457468103489E-1
 1.061000000000000E+10   8.853337186025567E-1   -4.028312509480527E-1
 1.062000000000000E+10   8.459903140525969E-1   -4.790108216171687E-1
 1.063000000000000E+10   8.016645320304759E-1   -5.510186540550824E-1
 1.064000000000000E+10   7.527763537214465E-1   -6.185033408589119E-1
 1.065000000000000E+10   6.998135324727413E-1   -6.799473828539983E-1
 1.066000000000000E+10   6.433532063125467E-1   -7.353133464020154E-1
 1.067000000000000E+10   5.839358880188483E-1   -7.838840825339951E-1
 1.068000000000000E+10   5.209776143038337E-1   -8.261760389611577E-1
 1.069000000000000E+10   4.547394443640457E-1   -8.626920558904123E-1
 1.070000000000000E+10   3.848865149850805E-1   -8.935640168694076E-1
 1.071000000000000E+10   3.111411008109104E-1   -9.190425622093434E-1
 1.072000000000000E+10   2.345501376507287E-1   -9.394265508646228E-1
 1.073000000000000E+10   1.555181128392754E-1   -9.544057189994274E-1
 1.074000000000000E+10   7.551375837218256E-2   -9.639456673327617E-1
 1.075000000000000E+10  -4.501206616078622E-3   -9.674138979226710E-1
 1.076000000000000E+10  -8.352878790909501E-2   -9.646532269806358E-1
 1.077000000000000E+10  -1.608431691135383E-1   -9.553018672487553E-1
 1.078000000000000E+10  -2.361307099969248E-1   -9.394529928485639E-1
 1.079000000000000E+10  -3.091145510923348E-1   -9.166467056670634E-1
 1.080000000000000E+10  -3.802789969071123E-1   -8.871679005366819E-1
 1.081000000000000E+10  -4.498862258975927E-1   -8.506459141750143E-1
 1.082000000000000E+10  -5.178365313679381E-1   -8.075820132545133E-1
 1.083000000000000E+10  -5.840448179414077E-1   -7.579324184588521E-1
 1.084000000000000E+10  -6.472987138066483E-1   -7.021765986142996E-1
 1.085000000000000E+10  -7.070530008850735E-1   -6.411070298107098E-1
 1.086000000000000E+10  -7.617282012084075E-1   -5.750543062397041E-1
 1.087000000000000E+10  -8.101702005675719E-1   -5.049527275118233E-1
 1.088000000000000E+10  -8.518030519004298E-1   -4.311174390304620E-1
 1.089000000000000E+10  -8.857371797703774E-1   -3.537931967510788E-1
 1.090000000000000E+10  -9.120358238630962E-1   -2.734327630046778E-1
 1.091000000000000E+10  -9.305243428914408E-1   -1.900020277178178E-1
 1.092000000000000E+10  -9.413815395946019E-1   -1.034963476432350E-1
 1.093000000000000E+10  -9.442985264680034E-1   -1.399467822035837E-2
 1.094000000000000E+10  -9.392740100588185E-1    7.742657608061367E-2
 1.095000000000000E+10  -9.257343479556392E-1    1.698394842101487E-1
 1.096000000000000E+10  -9.036808709757223E-1    2.617204973883895E-1
 1.097000000000000E+10  -8.726563291786866E-1    3.512467036528699E-1
 1.098000000000000E+10  -8.330610310591205E-1    4.369357558598115E-1
 1.099000000000000E+10  -7.851266596348230E-1    5.175737980540845E-1
 1.100000000000000E+10  -7.291385578081504E-1    5.922897230617852E-1
 1.101000000000000E+10  -6.657193926388252E-1    6.608299591920206E-1
 1.102000000000000E+10  -5.949010545391485E-1    7.231214136328400E-1
 1.103000000000000E+10  -5.170256420533770E-1    7.789394417006535E-1
 1.104000000000000E+10  -4.328227250036562E-1    8.275888365076722E-1
 1.105000000000000E+10  -3.429274134163388E-1    8.684957497346004E-1
 1.106000000000000E+10  -2.487933860411526E-1    9.005119216589581E-1
 1.107000000000000E+10  -1.516358710890017E-1    9.227025324807605E-1
 1.108000000000000E+10  -5.286959343357070E-2    9.347691907775517E-1
 1.109000000000000E+10   4.552944407839346E-2    9.360657890942768E-1
 1.110000000000000E+10   1.427061969420464E-1    9.265158209712741E-1
 1.111000000000000E+10   2.373578679730308E-1    9.066403080189331E-1
 1.112000000000000E+10   3.291613800550922E-1    8.772193781864464E-1
 1.113000000000000E+10   4.173550842755412E-1    8.386785198730582E-1
 1.114000000000000E+10   5.017328634539011E-1    7.915661387022295E-1
 1.115000000000000E+10   5.814688700496934E-1    7.362959673358238E-1
 1.116000000000000E+10   6.557814320847808E-1    6.735285419820030E-1
 1.117000000000000E+10   7.236464290994089E-1    6.036639474789043E-1
 1.118000000000000E+10   7.832788879218616E-1    5.276705800797020E-1
 1.119000000000000E+10   8.341884426709210E-1    4.466384118767535E-1
 1.120000000000000E+10   8.759221218113004E-1    3.617978234292040E-1
 1.121000000000000E+10   9.080904860072856E-1    2.737941994557156E-1
 1.122000000000000E+10   9.309832511785124E-1    1.835649142746154E-1
 1.123000000000000E+10   9.448275482751477E-1    9.170953306376906E-2
 1.124000000000000E+10   9.500741647994663E-1   -1.171742681964990E-3
 1.125000000000000E+10   9.466125985433392E-1   -9.440962600253454E-2
 1.126000000000000E+10   9.345253777742131E-1   -1.870242333488672E-1
 1.127000000000000E+10   9.138541745242432E-1   -2.783490934680453E-1
 1.128000000000000E+10   8.846774513266699E-1   -3.668183199494454E-1
 1.129000000000000E+10   8.469446872383657E-1   -4.513442065989281E-1
 1.130000000000000E+10   8.012999660835537E-1   -5.312417199662764E-1
 1.131000000000000E+10   7.478487131126657E-1   -6.057820029994097E-1
 1.132000000000000E+10   6.878288172978722E-1   -6.741091462505471E-1
 1.133000000000000E+10   6.215765720022467E-1   -7.361474324403323E-1
 1.134000000000000E+10   5.498533437268840E-1   -7.918059525078555E-1
 1.135000000000000E+10   4.729310247732016E-1   -8.411076419615414E-1
 1.136000000000000E+10   3.913826207279189E-1   -8.833154386998032E-1
 1.137000000000000E+10   3.055898655833902E-1   -9.181124878799235E-1
 1.138000000000000E+10   2.160747156711298E-1   -9.446125170952011E-1
 1.139000000000000E+10   1.241618356638518E-1   -9.622038563506260E-1
 1.140000000000000E+10   3.078050581790991E-2   -9.703377552886977E-1
 1.141000000000000E+10  -6.319223232419291E-2   -9.689371507781451E-1
 1.142000000000000E+10  -1.565682355292246E-1   -9.577502274163868E-1
 1.143000000000000E+10  -2.483882841724125E-1   -9.376300521913098E-1
 1.144000000000000E+10  -3.380569284825117E-1   -9.090564785038735E-1
 1.145000000000000E+10  -4.247204654599482E-1   -8.720614652705292E-1
 1.146000000000000E+10  -5.084535299692083E-1   -8.266015342221289E-1
 1.147000000000000E+10  -5.879202048594538E-1   -7.731370887956094E-1
 1.148000000000000E+10  -6.617081181525225E-1   -7.111439930023763E-1
 1.149000000000000E+10  -7.295777823050293E-1   -6.419199547020065E-1
 1.150000000000000E+10  -7.897691985304772E-1   -5.648838654937185E-1
 1.151000000000000E+10  -8.416710266050108E-1   -4.816775921933011E-1
 1.152000000000000E+10  -8.847877040048167E-1   -3.933302673851230E-1
 1.153000000000000E+10  -9.189416287787179E-1   -3.006559911965129E-1
 1.154000000000000E+10  -9.434068967929923E-1   -2.047928722544856E-1
 1.155000000000000E+10  -9.583207866032736E-1   -1.067058954788168E-1
 1.156000000000000E+10  -9.634712793012962E-1   -7.792260735750059E-3
 1.157000000000000E+10  -9.589147442560167E-1    9.167755407861444E-2
 1.158000000000000E+10  -9.441976155425754E-1    1.905826659810751E-1
 1.159000000000000E+10  -9.188652873010419E-1    2.876767529525442E-1
 1.160000000000000E+10  -8.826932472256668E-1    3.821301673535943E-1
 1.161000000000000E+10  -8.364006528439369E-1    4.723119159156389E-1
 1.162000000000000E+10  -7.800427536266324E-1    5.571572003664513E-1
 1.163000000000000E+10  -7.151544775683134E-1    6.352582238648646E-1
 1.164000000000000E+10  -6.429240403946682E-1    7.060259134183663E-1
 1.165000000000000E+10  -5.644632733098771E-1    7.688380338253007E-1
 1.166000000000000E+10  -4.810811604387485E-1    8.229810092134748E-1
 1.167000000000000E+10  -3.934061250767638E-1    8.682627546238136E-1
 1.168000000000000E+10  -3.020296435671176E-1    9.040313620853786E-1
 1.169000000000000E+10  -2.077535286142191E-1    9.297221013253846E-1
 1.170000000000000E+10  -1.111586190190655E-1    9.450683145070596E-1
 1.171000000000000E+10  -1.385422541204445E-2    9.499007818311814E-1
 1.172000000000000E+10   8.327623150066103E-2    9.444394349827199E-1
 1.173000000000000E+10   1.791460533930930E-1    9.292042705233476E-1
 1.174000000000000E+10   2.725167926995544E-1    9.045689826699899E-1
 1.175000000000000E+10   3.622172064300578E-1    8.714700508325193E-1
 1.176000000000000E+10   4.469911678283965E-1    8.306254963834199E-1
 1.177000000000000E+10   5.261647241999651E-1    7.829159032586321E-1
 1.178000000000000E+10   5.990738393212196E-1    7.289347782086210E-1
 1.179000000000000E+10   6.653915582726966E-1    6.689878859181726E-1
 1.180000000000000E+10   7.246482500945793E-1    6.035385750142349E-1
 1.181000000000000E+10   7.766636697314954E-1    5.330453515691392E-1
 1.182000000000000E+10   8.213197464774684E-1    4.578615936170700E-1
 1.183000000000000E+10   8.585450520821828E-1    3.791454686789942E-1
 1.184000000000000E+10   8.886426681448257E-1    2.978680479619187E-1
 1.185000000000000E+10   9.115468643542615E-1    2.151091673420511E-1
 1.186000000000000E+10   9.273804240247333E-1    1.322110996086884E-1
 1.187000000000000E+10   9.362067692065305E-1    4.928205463141035E-2
 1.188000000000000E+10   9.380258177481789E-1   -3.266825444223873E-2
 1.189000000000000E+10   9.325961855794551E-1   -1.133610207628045E-1
 1.190000000000000E+10   9.198673701329287E-1   -1.925062038756436E-1
 1.191000000000000E+10   8.996426192276025E-1   -2.696804690156767E-1
 1.192000000000000E+10   8.726413572360561E-1   -3.445116403814328E-1
 1.193000000000000E+10   8.391017821168689E-1   -4.168773456327300E-1
 1.194000000000000E+10   7.995756062528699E-1   -4.862504801255102E-1
 1.195000000000000E+10   7.550032681030242E-1   -5.522869976809353E-1
 1.196000000000000E+10   7.061875670726779E-1   -6.143453295330003E-1
 1.197000000000000E+10   6.537849827299297E-1   -6.721686509395909E-1
 1.198000000000000E+10   5.980156734865802E-1   -7.246074233210890E-1
 1.199000000000000E+10   5.392501783772680E-1   -7.720155774468225E-1
 1.200000000000000E+10   4.777164501047687E-1   -8.136753164190020E-1
 1.201000000000000E+10   4.127318272379439E-1   -8.493591949378555E-1
 1.202000000000000E+10   3.446325450126973E-1   -8.795794751501418E-1
 1.203000000000000E+10   2.733832466400920E-1   -9.036557468819466E-1
 1.204000000000000E+10   1.990685410695517E-1   -9.217945111360465E-1
 1.205000000000000E+10   1.223822271351592E-1   -9.342696321668124E-1
 1.206000000000000E+10   4.397577939053077E-2   -9.411665476459846E-1
 1.207000000000000E+10  -3.485421111465193E-2   -9.424015696541465E-1
 1.208000000000000E+10  -1.134083218899531E-1   -9.378683069915348E-1
 1.209000000000000E+10  -1.908581513553018E-1   -9.276339624224057E-1
 1.210000000000000E+10  -2.664787325842621E-1   -9.113213850454523E-1
 1.211000000000000E+10  -3.402178845996208E-1   -8.884348072298648E-1
 1.212000000000000E+10  -4.116062533253272E-1   -8.589777451517583E-1
 1.213000000000000E+10  -4.807717483358791E-1   -8.227478186436513E-1
 1.214000000000000E+10  -5.472936841870468E-1   -7.794928480113337E-1
 1.215000000000000E+10  -6.112636271175148E-1   -7.297883026932106E-1
 1.216000000000000E+10  -6.721593452866057E-1   -6.741048307305065E-1
 1.217000000000000E+10  -7.292025519976647E-1   -6.128615280777883E-1
 1.218000000000000E+10  -7.817614009163014E-1   -5.467699135172375E-1
 1.219000000000000E+10  -8.289938884064318E-1   -4.763280551775881E-1
 1.220000000000000E+10  -8.699367091927203E-1   -4.020602639408198E-1
 1.221000000000000E+10  -9.036942664497067E-1   -3.243821626546685E-1
 1.222000000000000E+10  -9.298793625115149E-1   -2.428645973449218E-1
 1.223000000000000E+10  -9.478259286834305E-1   -1.583866799739586E-1
 1.224000000000000E+10  -9.579301824477678E-1   -7.066384400656833E-2
 1.225000000000000E+10  -9.593331219869541E-1    1.980269979415117E-2
 1.226000000000000E+10  -9.520397448905680E-1    1.123671103513971E-1
 1.227000000000000E+10  -9.359395826823889E-1    2.052076858450020E-1
 1.228000000000000E+10  -9.115308890508517E-1    2.974006362814124E-1
 1.229000000000000E+10  -8.785747474649449E-1    3.874501627750490E-1
 1.230000000000000E+10  -8.372929658725058E-1    4.737158440990136E-1
 1.231000000000000E+10  -7.872027229974483E-1    5.552170070201732E-1
 1.232000000000000E+10  -7.285446325276669E-1    6.312306716790417E-1
 1.233000000000000E+10  -6.616536364306721E-1    7.004295704729636E-1
 1.234000000000000E+10  -5.859656241298601E-1    7.630470934413006E-1
 1.235000000000000E+10  -5.019178925257962E-1    8.177057795659669E-1
 1.236000000000000E+10  -4.106335757810968E-1    8.644972185188076E-1
 1.237000000000000E+10  -3.127968547480658E-1    9.018814386263604E-1
 1.238000000000000E+10  -2.106400072261750E-1    9.297518439727958E-1
 1.239000000000000E+10  -1.054146816374032E-1    9.466338438249263E-1
 1.240000000000000E+10   2.431615785331575E-4    9.525188872736153E-1
 1.241000000000000E+10   1.046391156732811E-1    9.467603386048532E-1
 1.242000000000000E+10   2.067365542792853E-1    9.289213557728631E-1
 1.243000000000000E+10   3.052212143039739E-1    8.989413732579835E-1
 1.244000000000000E+10   3.996844701369348E-1    8.575703221025311E-1
 1.245000000000000E+10   4.889881311707806E-1    8.049725287263649E-1
 1.246000000000000E+10   5.725227363342337E-1    7.416530683776996E-1
 1.247000000000000E+10   6.492556698440016E-1    6.694621378400952E-1
 1.248000000000000E+10   7.180631733826397E-1    5.893238191144895E-1
 1.249000000000000E+10   7.779476289287264E-1    5.028995652784546E-1
 1.250000000000000E+10   8.273840041267838E-1    4.123323438902421E-1
