#  HZ   S   RI   R     50.00 
! Rohde & Schwarz Vector Network Analyzer 
! Rohde-Schwarz,ZNA43-4Port,1332450044101932,2.92
! Created: UTC 6/1/2026, 11:34:48 AM
! freq[Hz]                re:S11                  im:S11
 8.000000000000000E9     3.546813265150146E-2    9.764499633567545E-1
 8.010000000000000E9     1.149023178141009E-1    9.718815345708194E-1
 8.020000000000000E9     1.927705620875394E-1    9.606896665254758E-1
 8.030000000000000E9     2.691268725476098E-1    9.427268805472612E-1
 8.040000000000000E9     3.443663111904172E-1    9.176969719069886E-1
 8.050000000000000E9     4.181706039394045E-1    8.858173640324863E-1
 8.060000000000000E9     4.897110169969128E-1    8.470152065119885E-1
 8.070000000000000E9     5.590808211095506E-1    8.019619964246633E-1
 8.080000000000000E9     6.254725056179181E-1    7.510951377805615E-1
 8.090000000000000E9     6.879990699981047E-1    6.946581120308750E-1
 8.100000000000000E9     7.463359072462142E-1    6.324781242542437E-1
 8.110000000000000E9     7.996868277616457E-1    5.648207401657211E-1
 8.120000000000000E9     8.473160588014694E-1    4.917935913226988E-1
 8.130000000000000E9     8.883914116989624E-1    4.125345792121669E-1
 8.140000000000000E9     9.222959248656538E-1    3.271834266563233E-1
 8.150000000000000E9     9.482011884373192E-1    2.354033919325674E-1
 8.160000000000000E9     9.654714561452830E-1    1.382370625786256E-1
 8.170000000000000E9     9.730593152096698E-1    3.587137257379582E-2
 8.180000000000000E9     9.702327850724048E-1   -7.020457766870569E-2
 8.190000000000000E9     9.560359162466603E-1   -1.789481264003687E-1
 8.200000000000000E9     9.291340590194463E-1   -2.884182119493665E-1
 8.210000000000000E9     8.884629969444047E-1   -3.977927832721646E-1
 8.220000000000000E9     8.324209855290856E-1   -5.046450010196408E-1
 8.230000000000000E9     7.600545975633356E-1   -6.069727993494753E-1
 8.240000000000000E9     6.701374484734359E-1   -7.022632258078016E-1
 8.250000000000000E9     5.627765219856711E-1   -7.879646722228328E-1
 8.260000000000000E9     4.383111617405437E-1   -8.604032346062143E-1
 8.270000000000000E9     2.987183636216161E-1   -9.158336089715702E-1
 8.280000000000000E9     1.470855477688595E-1   -9.505840164569681E-1
 8.290000000000000E9    -1.252524138758450E-2   -9.613549637526070E-1
 8.300000000000000E9    -1.748363852684237E-1   -9.458694886493272E-1
 8.310000000000000E9    -3.350665587106839E-1   -9.023888960469936E-1
 8.320000000000000E9    -4.874185447360933E-1   -8.302704389582715E-1
 8.330000000000000E9    -6.261885556346618E-1   -7.304567325819238E-1
 8.340000000000000E9    -7.460549447000738E-1   -6.049961794559349E-1
 8.350000000000000E9    -8.420092037658595E-1   -4.582056469248283E-1
 8.360000000000000E9    -9.101915981885589E-1   -2.960903520929252E-1
 8.370000000000000E9    -9.486774716166276E-1   -1.255300617913477E-1
 8.380000000000000E9    -9.568323112985836E-1    4.639990993182575E-2
 8.390000000000000E9    -9.360383429983241E-1    2.129591208507006E-1
 8.400000000000000E9    -8.889248251642974E-1    3.687078646874455E-1
 8.410000000000000E9    -8.184969786757960E-1    5.095436386986534E-1
 8.420000000000000E9    -7.283107767992951E-1    6.327772414534468E-1
 8.430000000000000E9    -6.223266151496487E-1    7.372573988561467E-1
 8.440000000000000E9    -5.040580897009967E-1    8.218312536236327E-1
 8.450000000000000E9    -3.772028207622116E-1    8.866193451942701E-1
 8.460000000000000E9    -2.455472355204701E-1    9.317583075232244E-1
 8.470000000000000E9    -1.129795415864657E-1    9.581269920093446E-1
 8.480000000000000E9     1.750149075457845E-2    9.666490010668265E-1
 8.490000000000000E9     1.432202269852663E-1    9.585751677956195E-1
 8.500000000000000E9     2.619374264376689E-1    9.355542999969504E-1
 8.510000000000000E9     3.738129360250608E-1    8.984351075512821E-1
 8.520000000000000E9     4.776708161865150E-1    8.486353345120938E-1
 8.530000000000000E9     5.730023290648959E-1    7.867357154408967E-1
 8.540000000000000E9     6.595851191984055E-1    7.140363918536873E-1
 8.550000000000000E9     7.369502578058071E-1    6.320340425409520E-1
 8.560000000000000E9     8.046836062537027E-1    5.417710474684986E-1
 8.570000000000000E9     8.618882379380479E-1    4.451958150298980E-1
 8.580000000000000E9     9.082388851267004E-1    3.439442265805717E-1
 8.590000000000000E9     9.427514920528181E-1    2.397190100335934E-1
 8.600000000000000E9     9.651428443977133E-1    1.335690393273967E-1
 8.610000000000000E9     9.750347445396409E-1    2.675715937588525E-2
 8.620000000000000E9     9.722862769178138E-1   -8.013928672966608E-2
 8.630000000000000E9     9.567208868002971E-1   -1.866581367712151E-1
 8.640000000000000E9     9.284210288797596E-1   -2.914927010884170E-1
 8.650000000000000E9     8.878129985232679E-1   -3.936996764186576E-1
 8.660000000000000E9     8.356093358829753E-1   -4.923505893248952E-1
 8.670000000000000E9     7.723446391700888E-1   -5.856600263601679E-1
 8.680000000000000E9     6.989619498746720E-1   -6.717572881564162E-1
 8.690000000000000E9     6.164746623557665E-1   -7.492076905186199E-1
 8.700000000000000E9     5.259581099019431E-1   -8.166968524110459E-1
 8.710000000000000E9     4.280678955441067E-1   -8.724114478998138E-1
 8.720000000000000E9     3.238162315524140E-1   -9.162726340583439E-1
 8.730000000000000E9     2.138933027089624E-1   -9.469234693923168E-1
 8.740000000000000E9     9.965539190499721E-2   -9.639589792350057E-1
 8.750000000000000E9    -1.753398492164238E-2   -9.671835252779086E-1
 8.760000000000000E9    -1.353525877632041E-1   -9.565058059916800E-1
 8.770000000000000E9    -2.519137005379312E-1   -9.320768372263014E-1
 8.780000000000000E9    -3.645225393724537E-1   -8.945094395868295E-1
 8.790000000000000E9    -4.711431085970119E-1   -8.445598690668348E-1
 8.800000000000000E9    -5.700953734581027E-1   -7.828137785460129E-1
 8.810000000000000E9    -6.596211468152567E-1   -7.103783126730020E-1
 8.820000000000000E9    -7.386495688138474E-1   -6.278535293534679E-1
 8.830000000000000E9    -8.064912454302607E-1   -5.364233241922400E-1
 8.840000000000000E9    -8.627137178617055E-1   -4.373706764266713E-1
 8.850000000000000E9    -9.069956548412823E-1   -3.323245639143887E-1
 8.860000000000000E9    -9.391680251021279E-1   -2.227667228061882E-1
 8.870000000000000E9    -9.588865905332774E-1   -1.108641268363455E-1
 8.880000000000000E9    -9.660594999973250E-1    1.319660911315089E-3
 8.890000000000000E9    -9.611879598071233E-1    1.114581654516540E-1
 8.900000000000000E9    -9.443327146637364E-1    2.183135122020650E-1
 8.910000000000000E9    -9.161022509600660E-1    3.201568157764874E-1
 8.920000000000000E9    -8.771968523194325E-1    4.164876548614221E-1
 8.930000000000000E9    -8.280111670517377E-1    5.067495051594330E-1
 8.940000000000000E9    -7.694544043248542E-1    5.906568532603345E-1
 8.950000000000000E9    -7.024998687594396E-1    6.675687553851248E-1
 8.960000000000000E9    -6.281732842600697E-1    7.371753928905034E-1
 8.970000000000000E9    -5.475637855417529E-1    7.988894391735915E-1
 8.980000000000000E9    -4.621710367917736E-1    8.520857579191500E-1
 8.990000000000000E9    -3.732036269837953E-1    8.961785940084238E-1
 9.000000000000000E9    -2.817370107801736E-1    9.308086322370673E-1
 9.010000000000000E9    -1.889997150579302E-1    9.554389307445779E-1
 9.020000000000000E9    -9.538863715815991E-2    9.699496017608223E-1
 9.030000000000000E9    -1.143251570542883E-3    9.745870407796193E-1
 9.040000000000000E9     9.343589387128044E-2    9.695407812936324E-1
 9.050000000000000E9     1.877658087833379E-1    9.548007803045375E-1
 9.060000000000000E9     2.812804794750889E-1    9.303798800268840E-1
 9.070000000000000E9     3.732360681966810E-1    8.970575499884612E-1
 9.080000000000000E9     4.627639905724340E-1    8.546193018052503E-1
 9.090000000000000E9     5.483109762197294E-1    8.034888811734335E-1
 9.100000000000000E9     6.284557743505086E-1    7.439074209717563E-1
 9.110000000000000E9     7.021124300039325E-1    6.763396231051179E-1
 9.120000000000000E9     7.683197453885353E-1    6.006893015008327E-1
 9.130000000000000E9     8.261458451143373E-1    5.175089867791978E-1
 9.140000000000000E9     8.752147755282400E-1    4.268973625503321E-1
 9.150000000000000E9     9.146780800544093E-1    3.293308128079062E-1
 9.160000000000000E9     9.439788767981313E-1    2.246498673506031E-1
 9.170000000000000E9     9.619773165393318E-1    1.138984684175893E-1
 9.180000000000000E9     9.677048605859838E-1   -1.871063436976723E-3
 9.190000000000000E9     9.596084541042852E-1   -1.209445466856763E-1
 9.200000000000000E9     9.360120092450923E-1   -2.413082911324702E-1
 9.210000000000000E9     8.965496864919084E-1   -3.599307109088264E-1
 9.220000000000000E9     8.403968910159574E-1   -4.743145552500410E-1
 9.230000000000000E9     7.670536299632358E-1   -5.824783774212381E-1
 9.240000000000000E9     6.772657720982556E-1   -6.810754381020587E-1
 9.250000000000000E9     5.714682888362143E-1   -7.683331557180165E-1
 9.260000000000000E9     4.508875070410990E-1   -8.413986329106617E-1
 9.270000000000000E9     3.174566928995010E-1   -8.974245216032219E-1
 9.280000000000000E9     1.737228199122946E-1   -9.338414707086180E-1
 9.290000000000000E9     2.332730233608700E-2   -9.481043597582745E-1
 9.300000000000000E9    -1.292460715097021E-1   -9.382056109428253E-1
 9.310000000000000E9    -2.788264783766395E-1   -9.038319326346830E-1
 9.320000000000000E9    -4.205849017168310E-1   -8.452396645937074E-1
 9.330000000000000E9    -5.501226234751037E-1   -7.649536949113169E-1
 9.340000000000000E9    -6.636746546936657E-1   -6.655299881027280E-1
 9.350000000000000E9    -7.589908419536809E-1   -5.510765471220183E-1
 9.360000000000000E9    -8.346773376459871E-1   -4.251058775234509E-1
 9.370000000000000E9    -8.897345866053193E-1   -2.912391825738128E-1
 9.380000000000000E9    -9.238660161305094E-1   -1.535935909601912E-1
 9.390000000000000E9    -9.371535660097666E-1   -1.558876725051462E-2
 9.400000000000000E9    -9.305721478880095E-1    1.186084608797231E-1
 9.410000000000000E9    -9.061790801517745E-1    2.463587285503805E-1
 9.420000000000000E9    -8.657850082631784E-1    3.649366514500841E-1
 9.430000000000000E9    -8.125204418892978E-1    4.727538427525851E-1
 9.440000000000000E9    -7.488855338849638E-1    5.689970607444969E-1
 9.450000000000000E9    -6.771742555646338E-1    6.537537483185463E-1
 9.460000000000000E9    -5.994939232783943E-1    7.274177385361442E-1
 9.470000000000000E9    -5.173222185057648E-1    7.897026125157268E-1
 9.480000000000000E9    -4.316341421334142E-1    8.412945453816846E-1
 9.490000000000000E9    -3.439049486574120E-1    8.825494172527452E-1
 9.500000000000000E9    -2.547730906935129E-1    9.132587559477772E-1
 9.510000000000000E9    -1.659005669343082E-1    9.345815789716271E-1
 9.520000000000000E9    -7.800710473080043E-2    9.467266882984555E-1
 9.530000000000000E9     7.946196694860486E-3    9.502122461784440E-1
 9.540000000000000E9     9.142022528831366E-2    9.461633587798441E-1
 9.550000000000000E9     1.718314321213051E-1    9.354958771870755E-1
 9.560000000000000E9     2.488756958928702E-1    9.190672893021737E-1
 9.570000000000000E9     3.224804632358967E-1    8.971726067295631E-1
 9.580000000000000E9     3.927545268739533E-1    8.703989977303731E-1
 9.590000000000000E9     4.594080921149338E-1    8.386604693530443E-1
 9.600000000000000E9     5.224420371715269E-1    8.022277980344336E-1
 9.610000000000000E9     5.816805695215731E-1    7.612506740052255E-1
 9.620000000000000E9     6.369812534047058E-1    7.158889196146170E-1
 9.630000000000000E9     6.880741540666107E-1    6.666937577888710E-1
 9.640000000000000E9     7.348802739020184E-1    6.143279894364764E-1
 9.650000000000000E9     7.773068776308396E-1    5.593397013636124E-1
 9.660000000000000E9     8.156934161361636E-1    5.020727751943054E-1
 9.670000000000000E9     8.499553879076234E-1    4.429741204041302E-1
 9.680000000000000E9     8.800458353493019E-1    3.821193158884502E-1
 9.690000000000000E9     9.056573369054535E-1    3.195034136304342E-1
 9.700000000000000E9     9.267321182898118E-1    2.548928384373871E-1
 9.710000000000000E9     9.430427943456394E-1    1.885436480496392E-1
 9.720000000000000E9     9.541464755340234E-1    1.203469551172728E-1
 9.730000000000000E9     9.599797550433715E-1    5.068055915873224E-2
 9.740000000000000E9     9.605815997664409E-1   -2.004905782433528E-2
 9.750000000000000E9     9.558759241775879E-1   -9.157076255250510E-2
 9.760000000000000E9     9.459061250987889E-1   -1.634076038413498E-1
 9.770000000000000E9     9.307481958484098E-1   -2.348482999434620E-1
 9.780000000000000E9     9.104360425417800E-1   -3.061083988157992E-1
 9.790000000000000E9     8.843933026709587E-1   -3.765465354782133E-1
 9.800000000000000E9     8.522153954230058E-1   -4.460658940010909E-1
 9.810000000000000E9     8.133215168943572E-1   -5.145103316308545E-1
 9.820000000000000E9     7.668943270415496E-1   -5.813678290190016E-1
 9.830000000000000E9     7.128162075640929E-1   -6.460281905789115E-1
 9.840000000000000E9     6.506106198413885E-1   -7.076730201412188E-1
 9.850000000000000E9     5.802346266595657E-1   -7.652471865035134E-1
 9.860000000000000E9     5.023802846905944E-1   -8.180251807637703E-1
 9.870000000000000E9     4.174074728769250E-1   -8.646430065873868E-1
 9.880000000000000E9     3.255995163990201E-1   -9.039588448057708E-1
 9.890000000000000E9     2.271733399770976E-1   -9.347099114009545E-1
 9.900000000000000E9     1.223246333070401E-1   -9.551922094161205E-1
 9.910000000000000E9     1.145557568874637E-2   -9.636376819006418E-1
 9.920000000000000E9    -1.047733809030965E-1   -9.579786663575487E-1
 9.930000000000000E9    -2.251761172359692E-1   -9.362871701683649E-1
 9.940000000000000E9    -3.470394671501069E-1   -8.967520963781911E-1
 9.950000000000000E9    -4.679635532824101E-1   -8.384381661000263E-1
 9.960000000000000E9    -5.840896263234737E-1   -7.606490339920380E-1
 9.970000000000000E9    -6.911228961175842E-1   -6.642125911507966E-1
 9.980000000000000E9    -7.850261206049972E-1   -5.502348892034393E-1
 9.990000000000000E9    -8.618684695417677E-1   -4.209716148572303E-1
 1.000000000000000E+10  -9.177628233864410E-1   -2.792788519011900E-1
 1.001000000000000E+10  -9.506076118811903E-1   -1.268973046674033E-1
 1.002000000000000E+10  -9.569974099016276E-1    3.033898284160025E-2
 1.003000000000000E+10  -9.363329272969031E-1    1.880403350121800E-1
 1.004000000000000E+10  -8.891763139807084E-1    3.407024326432164E-1
 1.005000000000000E+10  -8.176518499767870E-1    4.826207363416101E-1
 1.006000000000000E+10  -7.260626083929302E-1    6.090096816680979E-1
 1.007000000000000E+10  -6.186237753106275E-1    7.167952142722632E-1
 1.008000000000000E+10  -5.004942226308036E-1    8.037219948327784E-1
 1.009000000000000E+10  -3.757967377397929E-1    8.694336119145702E-1
 1.010000000000000E+10  -2.478528656131453E-1    9.141865793326392E-1
 1.011000000000000E+10  -1.195571965458995E-1    9.391796356737335E-1
 1.012000000000000E+10   7.302990699022792E-3    9.453547639137009E-1
 1.013000000000000E+10   1.303675178043978E-1    9.347096136902593E-1
 1.014000000000000E+10   2.473021275059357E-1    9.093274554649589E-1
 1.015000000000000E+10   3.568746830148960E-1    8.715302311867299E-1
 1.016000000000000E+10   4.576394691090638E-1    8.234588131282709E-1
 1.017000000000000E+10   5.482436255663228E-1    7.678128209745345E-1
 1.018000000000000E+10   6.286656610297925E-1    7.062209461698442E-1
 1.019000000000000E+10   6.986887322183449E-1    6.400815088668050E-1
 1.020000000000000E+10   7.583008139825491E-1    5.704733379731229E-1
 1.021000000000000E+10   8.087789382109339E-1    4.977102400980029E-1
 1.022000000000000E+10   8.505060795368776E-1    4.218975502940667E-1
 1.023000000000000E+10   8.843704889221036E-1    3.433266900169898E-1
 1.024000000000000E+10   9.102777367836040E-1    2.623683810420639E-1
 1.025000000000000E+10   9.294487509291761E-1    1.801739023711811E-1
 1.026000000000000E+10   9.416265169448346E-1    9.779634993660676E-2
 1.027000000000000E+10   9.475279411893561E-1    1.639815723962211E-2
 1.028000000000000E+10   9.472911834181590E-1   -6.263973618382448E-2
 1.029000000000000E+10   9.414272451259248E-1   -1.385122570685290E-1
 1.030000000000000E+10   9.298288549957152E-1   -2.110623306376579E-1
 1.031000000000000E+10   9.125097537500328E-1   -2.805352872375638E-1
 1.032000000000000E+10   8.895155245571013E-1   -3.471860770186779E-1
 1.033000000000000E+10   8.606696499123357E-1   -4.114173527387515E-1
 1.034000000000000E+10   8.263543832409466E-1   -4.735478702952257E-1
 1.035000000000000E+10   7.868179124413258E-1   -5.335067348113093E-1
 1.036000000000000E+10   7.423482825301310E-1   -5.916214700178252E-1
 1.037000000000000E+10   6.937087276551793E-1   -6.469809564779363E-1
 1.038000000000000E+10   6.416609578338294E-1   -6.990963350172803E-1
 1.039000000000000E+10   5.868303682256922E-1   -7.470062356160432E-1
 1.040000000000000E+10   5.294374691204048E-1   -7.902391055956229E-1
 1.041000000000000E+10   4.698660275900657E-1   -8.284884970605283E-1
 1.042000000000000E+10   4.077678255267344E-1   -8.610777981883417E-1
 1.043000000000000E+10   3.428120555611840E-1   -8.883161877535803E-1
 1.044000000000000E+10   2.744865133325995E-1   -9.101618710127283E-1
 1.045000000000000E+10   2.027902095066136E-1   -9.264666193818656E-1
 1.046000000000000E+10   1.278235299946949E-1   -9.373530620869014E-1
 1.047000000000000E+10   5.015790877853502E-2   -9.427872407801564E-1
 1.048000000000000E+10  -2.934003873880189E-2   -9.425213796649767E-1
 1.049000000000000E+10  -1.094850422329631E-1   -9.364085984226551E-1
 1.050000000000000E+10  -1.890345046222272E-1   -9.240268275127159E-1
 1.051000000000000E+10  -2.674173031164084E-1   -9.051661954321520E-1
 1.052000000000000E+10  -3.437905894537042E-1   -8.793775310807963E-1
 1.053000000000000E+10  -4.181392297059452E-1   -8.461331660753957E-1
 1.054000000000000E+10  -4.901569771962226E-1   -8.048846149878324E-1
 1.055000000000000E+10  -5.599965475238614E-1   -7.552924911039844E-1
 1.056000000000000E+10  -6.270515363616563E-1   -6.970394872268021E-1
 1.057000000000000E+10  -6.908589173472637E-1   -6.306422907318793E-1
 1.058000000000000E+10  -7.501951163310800E-1   -5.564362073238860E-1
 1.059000000000000E+10  -8.035206503208563E-1   -4.750515589760667E-1
 1.060000000000000E+10  -8.496487846445822E-1   -3.877792749214918E-1
 1.061000000000000E+10  -8.870494805447402E-1   -2.952362645935809E-1
 1.062000000000000E+10  -9.144477941715307E-1   -1.988097479894878E-1
 1.063000000000000E+10  -9.306928147271999E-1   -9.877748552930474E-2
 1.064000000000000E+10  -9.349212069705947E-1    4.008062736958940E-3
 1.065000000000000E+10  -9.268571446507956E-1    1.091679285868915E-1
 1.066000000000000E+10  -9.060055984610991E-1    2.159317546141481E-1
 1.067000000000000E+10  -8.717471797920066E-1    3.230101155595204E-1
 1.068000000000000E+10  -8.242059112799885E-1    4.285893347087232E-1
 1.069000000000000E+10  -7.636733386403862E-1    5.300536563966555E-1
 1.070000000000000E+10  -6.909767690689831E-1    6.248347017574984E-1
 1.071000000000000E+10  -6.075316219518285E-1    7.099850140760765E-1
 1.072000000000000E+10  -5.144816149930639E-1    7.834204291456266E-1
 1.073000000000000E+10  -4.133437591313960E-1    8.438125291577658E-1
 1.074000000000000E+10  -3.053111125152621E-1    8.899763439986007E-1
 1.075000000000000E+10  -1.916848986838958E-1    9.216410443418817E-1
 1.076000000000000E+10  -7.377836795688106E-2    9.382072853316300E-1
 1.077000000000000E+10   4.700491665005165E-2    9.400628949161250E-1
 1.078000000000000E+10   1.683643179780906E-1    9.268480145528869E-1
 1.079000000000000E+10   2.877596815404451E-1    8.990647532032451E-1
 1.080000000000000E+10   4.022602998946191E-1    8.575729250786651E-1
 1.081000000000000E+10   5.092341452886898E-1    8.034016965396321E-1
 1.082000000000000E+10   6.065469581839220E-1    7.378116298372285E-1
 1.083000000000000E+10   6.927416247850792E-1    6.625237832081017E-1
 1.084000000000000E+10   7.672178612027214E-1    5.784972423598145E-1
 1.085000000000000E+10   8.295965260419915E-1    4.872909287723978E-1
 1.086000000000000E+10   8.803463859746425E-1    3.898410982856431E-1
 1.087000000000000E+10   9.195643610384546E-1    2.873074930391451E-1
 1.088000000000000E+10   9.468635843018107E-1    1.813245122209904E-1
 1.089000000000000E+10   9.630251345938156E-1    7.339628300986854E-2
 1.090000000000000E+10   9.673866182461681E-1   -3.459857887184712E-2
 1.091000000000000E+10   9.603607356068680E-1   -1.408455502618461E-1
 1.092000000000000E+10   9.421181883961783E-1   -2.431552390886776E-1
 1.093000000000000E+10   9.136852156179981E-1   -3.400125748879851E-1
 1.094000000000000E+10   8.756086115833798E-1   -4.313504001107801E-1
 1.095000000000000E+10   8.289278527935009E-1   -5.163804732013697E-1
 1.096000000000000E+10   7.734445281653856E-1   -5.953370407200662E-1
 1.097000000000000E+10   7.108274215492054E-1   -6.687244785502744E-1
 1.098000000000000E+10   6.408766850797465E-1   -7.356844997245324E-1
 1.099000000000000E+10   5.646422598633333E-1   -7.959974123984909E-1
 1.100000000000000E+10   4.831625019575261E-1   -8.490110024791259E-1
 1.101000000000000E+10   3.976583085923562E-1   -8.937131836911003E-1
 1.102000000000000E+10   3.091336663343514E-1   -9.289022359421112E-1
 1.103000000000000E+10   2.189712406686623E-1   -9.547691530299038E-1
 1.104000000000000E+10   1.279542141121165E-1   -9.707697855078666E-1
 1.105000000000000E+10   3.721568405423497E-2   -9.773086213011410E-1
 1.106000000000000E+10  -5.343335701307515E-2   -9.751347004677894E-1
 1.107000000000000E+10  -1.436357529609471E-1   -9.642371408322582E-1
 1.108000000000000E+10  -2.330780289718616E-1   -9.449715818125729E-1
 1.109000000000000E+10  -3.214782175537486E-1   -9.173560724522485E-1
 1.110000000000000E+10  -4.078746295395760E-1   -8.818440304336526E-1
 1.111000000000000E+10  -4.913489675649814E-1   -8.381951655782032E-1
 1.112000000000000E+10  -5.701449803333992E-1   -7.865127118350951E-1
 1.113000000000000E+10  -6.431680407498469E-1   -7.273519498440980E-1
 1.114000000000000E+10  -7.095356416982984E-1   -6.611648229211728E-1
 1.115000000000000E+10  -7.682237647934006E-1   -5.888104710302933E-1
 1.116000000000000E+10  -8.192573515596228E-1   -5.109157295809836E-1
 1.117000000000000E+10  -8.622188454705040E-1   -4.280756831653595E-1
 1.118000000000000E+10  -8.976082407257869E-1   -3.410414497754720E-1
 1.119000000000000E+10  -9.249232403985475E-1   -2.504061487491415E-1
 1.120000000000000E+10  -9.437008319427663E-1   -1.566816713940324E-1
 1.121000000000000E+10  -9.535994950041530E-1   -6.089189086251267E-2
 1.122000000000000E+10  -9.540539882786235E-1    3.567754628301912E-2
 1.123000000000000E+10  -9.444768014474051E-1    1.318471854872559E-1
 1.124000000000000E+10  -9.247381427099187E-1    2.260741965558652E-1
 1.125000000000000E+10  -8.953779129090047E-1    3.175183086781701E-1
 1.126000000000000E+10  -8.565801396100395E-1    4.047058371444729E-1
 1.127000000000000E+10  -8.091691258528605E-1    4.873304962375483E-1
 1.128000000000000E+10  -7.534063124287387E-1    5.650205823625757E-1
 1.129000000000000E+10  -6.902529247580022E-1    6.373162765098175E-1
 1.130000000000000E+10  -6.199938468490525E-1    7.032313800058136E-1
 1.131000000000000E+10  -5.437459409034973E-1    7.621729593197699E-1
 1.132000000000000E+10  -4.618091149695412E-1    8.133599226017812E-1
 1.133000000000000E+10  -3.752596395350390E-1    8.558122872423299E-1
 1.134000000000000E+10  -2.852662770919088E-1    8.888203160989282E-1
 1.135000000000000E+10  -1.929977946613072E-1    9.120992394614127E-1
 1.136000000000000E+10  -9.944464472688913E-2    9.253610527684633E-1
 1.137000000000000E+10  -5.938067159936137E-3    9.291729329039581E-1
 1.138000000000000E+10   8.678013574444392E-2    9.240256908807352E-1
 1.139000000000000E+10   1.782383081938082E-1    9.099607548604078E-1
 1.140000000000000E+10   2.677122453059479E-1    8.876161015482026E-1
 1.141000000000000E+10   3.545728229558399E-1    8.572597889213797E-1
 1.142000000000000E+10   4.379005434127987E-1    8.187107988607549E-1
 1.143000000000000E+10   5.167396090454888E-1    7.722631569211440E-1
 1.144000000000000E+10   5.901896009137136E-1    7.182406525671772E-1
 1.145000000000000E+10   6.574940887667928E-1    6.572145845350890E-1
 1.146000000000000E+10   7.178393601018292E-1    5.904640330814945E-1
 1.147000000000000E+10   7.712011396509642E-1    5.185171883660166E-1
 1.148000000000000E+10   8.176266434096296E-1    4.423215254294323E-1
 1.149000000000000E+10   8.564773763860016E-1    3.625255758012260E-1
 1.150000000000000E+10   8.883028143016868E-1    2.800072824140931E-1
 1.151000000000000E+10   9.126814743749430E-1    1.950927846839106E-1
 1.152000000000000E+10   9.289878345227714E-1    1.086719369259764E-1
 1.153000000000000E+10   9.371253705605476E-1    2.117408297986817E-2
 1.154000000000000E+10   9.367300027305516E-1   -6.670248897705518E-2
 1.155000000000000E+10   9.277215618012222E-1   -1.539549531064590E-1
 1.156000000000000E+10   9.100599657074923E-1   -2.400548665659099E-1
 1.157000000000000E+10   8.842201207591546E-1   -3.237609144917500E-1
 1.158000000000000E+10   8.509661926929735E-1   -4.043899060708253E-1
 1.159000000000000E+10   8.104567024334328E-1   -4.813294703560659E-1
 1.160000000000000E+10   7.637470640340464E-1   -5.545944988051527E-1
 1.161000000000000E+10   7.109047664304953E-1   -6.230690891289820E-1
 1.162000000000000E+10   6.521664213934809E-1   -6.869608268803961E-1
 1.163000000000000E+10   5.874491342138370E-1   -7.452873780995308E-1
 1.164000000000000E+10   5.169328413408357E-1   -7.973851002133432E-1
 1.165000000000000E+10   4.412838692485060E-1   -8.428730098723981E-1
 1.166000000000000E+10   3.605926477112959E-1   -8.806285933882507E-1
 1.167000000000000E+10   2.760648292946468E-1   -9.105728413969657E-1
 1.168000000000000E+10   1.886721564209359E-1   -9.324234257804750E-1
 1.169000000000000E+10   9.914651382247107E-2   -9.462701300878534E-1
 1.170000000000000E+10   8.586269764371351E-3   -9.522506533137058E-1
 1.171000000000000E+10  -8.234003786784430E-2   -9.497661629227808E-1
 1.172000000000000E+10  -1.725527387660021E-1   -9.388457036769192E-1
 1.173000000000000E+10  -2.617596360797672E-1   -9.194218849587420E-1
 1.174000000000000E+10  -3.493815550255067E-1   -8.908957420595057E-1
 1.175000000000000E+10  -4.342378199140257E-1   -8.531170248748838E-1
 1.176000000000000E+10  -5.162716267540405E-1   -8.060827209134553E-1
 1.177000000000000E+10  -5.941902951862691E-1   -7.498074737465366E-1
 1.178000000000000E+10  -6.672243343699910E-1   -6.848666662755450E-1
 1.179000000000000E+10  -7.340297513390110E-1   -6.118754140779107E-1
 1.180000000000000E+10  -7.940659096728258E-1   -5.316896416570324E-1
 1.181000000000000E+10  -8.460338060555941E-1   -4.454202034898176E-1
 1.182000000000000E+10  -8.891399108017223E-1   -3.543974064721221E-1
 1.183000000000000E+10  -9.229400167558407E-1   -2.582063145851011E-1
 1.184000000000000E+10  -9.454734211611242E-1   -1.582966757888351E-1
 1.185000000000000E+10  -9.566450684973709E-1   -5.559914213144952E-2
 1.186000000000000E+10  -9.558325082770304E-1    4.936437135130028E-2
 1.187000000000000E+10  -9.426969243485237E-1    1.547942273324401E-1
 1.188000000000000E+10  -9.175050629374509E-1    2.593726335109761E-1
 1.189000000000000E+10  -8.806760612807017E-1    3.613860237624651E-1
 1.190000000000000E+10  -8.331051638064684E-1    4.590514095045423E-1
 1.191000000000000E+10  -7.752245454157073E-1    5.516063213601418E-1
 1.192000000000000E+10  -7.073727721474893E-1    6.369674212601310E-1
 1.193000000000000E+10  -6.302728715717932E-1    7.135449427883426E-1
 1.194000000000000E+10  -5.447359454622164E-1    7.804505786899504E-1
 1.195000000000000E+10  -4.516336136394331E-1    8.363437477210189E-1
 1.196000000000000E+10  -3.515372648125905E-1    8.805697217935931E-1
 1.197000000000000E+10  -2.460829645518433E-1    9.121160489479011E-1
 1.198000000000000E+10  -1.370351331689465E-1    9.316809030704265E-1
 1.199000000000000E+10  -2.652856756220279E-2    9.385314744498863E-1
 1.200000000000000E+10   8.366098391876768E-2    9.332240849032138E-1
 1.201000000000000E+10   1.910959328642220E-1    9.165949458930742E-1
 1.202000000000000E+10   2.942308724269946E-1    8.887244469977463E-1
 1.203000000000000E+10   3.916741162820296E-1    8.506030161539969E-1
 1.204000000000000E+10   4.822821214151543E-1    8.027811713941770E-1
 1.205000000000000E+10   5.655020165113166E-1    7.458536568360369E-1
 1.206000000000000E+10   6.406545791129138E-1    6.801510863018791E-1
 1.207000000000000E+10   7.078051297562358E-1    6.066059475084224E-1
 1.208000000000000E+10   7.664329331702541E-1    5.262690345843993E-1
 1.209000000000000E+10   8.161301269780418E-1    4.404346967777541E-1
 1.210000000000000E+10   8.568563873435475E-1    3.509699491041376E-1
 1.211000000000000E+10   8.883112957458187E-1    2.593562799298634E-1
 1.212000000000000E+10   9.104421077986726E-1    1.669755018965252E-1
 1.213000000000000E+10   9.232564701371401E-1    7.521262674014746E-2
 1.214000000000000E+10   9.266916223248541E-1   -1.558024698610080E-2
 1.215000000000000E+10   9.208599858606299E-1   -1.042079442320523E-1
 1.216000000000000E+10   9.060415387502652E-1   -1.910232714315805E-1
 1.217000000000000E+10   8.826604425360847E-1   -2.751216289372269E-1
 1.218000000000000E+10   8.512211135721690E-1   -3.564835885492446E-1
 1.219000000000000E+10   8.127942180842668E-1   -4.345575132787994E-1
 1.220000000000000E+10   7.680420483706498E-1   -5.087063937700563E-1
 1.221000000000000E+10   7.176990780335534E-1   -5.782012321032716E-1
 1.222000000000000E+10   6.629840992227414E-1   -6.424355648382996E-1
 1.223000000000000E+10   6.043426223986325E-1   -7.003899114022186E-1
 1.224000000000000E+10   5.421979717318878E-1   -7.514240474829338E-1
 1.225000000000000E+10   4.768171721921041E-1   -7.958683503634497E-1
 1.226000000000000E+10   4.084133264188934E-1   -8.333389288052938E-1
 1.227000000000000E+10   3.361673443066747E-1   -8.641000724932479E-1
 1.228000000000000E+10   2.611044969053659E-1   -8.881123891169606E-1
 1.229000000000000E+10   1.832795708867583E-1   -9.057455341964366E-1
 1.230000000000000E+10   1.035751735513331E-1   -9.173224733952143E-1
 1.231000000000000E+10   2.266611441348259E-2   -9.230173070055717E-1
 1.232000000000000E+10  -5.784930778582949E-2   -9.228922056285314E-1
 1.233000000000000E+10  -1.372042783656775E-1   -9.165534773237614E-1
 1.234000000000000E+10  -2.141337975102708E-1   -9.044971572234028E-1
 1.235000000000000E+10  -2.886311957477538E-1   -8.862764384523321E-1
 1.236000000000000E+10  -3.597194976570736E-1   -8.617435655000150E-1
 1.237000000000000E+10  -4.282547762281529E-1   -8.310720620693347E-1
 1.238000000000000E+10  -4.937861559515059E-1   -7.933249558286474E-1
 1.239000000000000E+10  -5.570702629684744E-1   -7.494232544831886E-1
 1.240000000000000E+10  -6.174839074828818E-1   -6.993169955746581E-1
 1.241000000000000E+10  -6.750056635010949E-1   -6.435679313257339E-1
 1.242000000000000E+10  -7.290565753814298E-1   -5.827135406346978E-1
 1.243000000000000E+10  -7.787981381781724E-1   -5.176652308713378E-1
 1.244000000000000E+10  -8.230518611681688E-1   -4.494753193088041E-1
 1.245000000000000E+10  -8.611792087187733E-1   -3.783632698596032E-1
 1.246000000000000E+10  -8.928502006272278E-1   -3.043891433979256E-1
 1.247000000000000E+10  -9.170643964954719E-1   -2.281899457991209E-1
 1.248000000000000E+10  -9.341555216284333E-1   -1.494783981634356E-1
 1.249000000000000E+10  -9.437609779333984E-1   -6.790615655021645E-2
 1.250000000000000E+10  -9.457871206434417E-1    1.611091656221107E-2
