#  HZ   S   RI   R     50.00 
! Rohde & Schwarz Vector Network Analyzer 
! Rohde-Schwarz,ZNA43-4Port,1332450044101932,2.92
! Created: UTC 6/1/2026, 11:34:42 AM
! freq[Hz]                re:S11                  im:S11
 8.000000000000000E9     2.074743210328406E-1    9.554576765440157E-1
 8.010000000000000E9     2.836232969562323E-1    9.370529072669979E-1
 8.020000000000000E9     3.580613480686328E-1    9.120882394260135E-1
 8.030000000000000E9     4.306342682149334E-1    8.803850561612975E-1
 8.040000000000000E9     5.015331867464679E-1    8.413672831582187E-1
 8.050000000000000E9     5.703149134058458E-1    7.953677017931700E-1
 8.060000000000000E9     6.361126529292548E-1    7.422424682095200E-1
 8.070000000000000E9     6.987439177706860E-1    6.826419237086814E-1
 8.080000000000000E9     7.573162823060527E-1    6.167315023416031E-1
 8.090000000000000E9     8.108445933813667E-1    5.451365270329143E-1
 8.100000000000000E9     8.585869952575030E-1    4.673761464434202E-1
 8.110000000000000E9     8.996689853655956E-1    3.837660944018264E-1
 8.120000000000000E9     9.329789417909825E-1    2.943783833870044E-1
 8.130000000000000E9     9.571360055500946E-1    1.987197165283031E-1
 8.140000000000000E9     9.713261437362276E-1    9.709539827784326E-2
 8.150000000000000E9     9.739864760121083E-1   -1.039965657770713E-2
 8.160000000000000E9     9.643635994944005E-1   -1.221238811462981E-1
 8.170000000000000E9     9.409244857172550E-1   -2.371894691714089E-1
 8.180000000000000E9     9.028220614112643E-1   -3.532031321317937E-1
 8.190000000000000E9     8.488259017754334E-1   -4.681577764563812E-1
 8.200000000000000E9     7.778541695523320E-1   -5.787370529039793E-1
 8.210000000000000E9     6.886689827692719E-1   -6.826491841541186E-1
 8.220000000000000E9     5.806765767823741E-1   -7.757140168318980E-1
 8.230000000000000E9     4.540701271733003E-1   -8.540751687812314E-1
 8.240000000000000E9     3.099088516696704E-1   -9.134642299825044E-1
 8.250000000000000E9     1.509031919879655E-1   -9.497484007499407E-1
 8.260000000000000E9    -1.853683829844768E-2   -9.588281326323767E-1
 8.270000000000000E9    -1.923073948861410E-1   -9.377672211424198E-1
 8.280000000000000E9    -3.630616749407290E-1   -8.852965006428236E-1
 8.290000000000000E9    -5.231746621710995E-1   -8.017652571711658E-1
 8.300000000000000E9    -6.654877238094355E-1   -6.896558368849024E-1
 8.310000000000000E9    -7.842289358500193E-1   -5.524350637117956E-1
 8.320000000000000E9    -8.740551530038837E-1   -3.952566077963484E-1
 8.330000000000000E9    -9.317491267072517E-1   -2.245082373158097E-1
 8.340000000000000E9    -9.559795473610356E-1   -4.713075448339947E-2
 8.350000000000000E9    -9.474674492479527E-1    1.293898394439021E-1
 8.360000000000000E9    -9.090718229250915E-1    2.978193122330536E-1
 8.370000000000000E9    -8.447697526692730E-1    4.526275819228347E-1
 8.380000000000000E9    -7.589230859416637E-1    5.892796311549726E-1
 8.390000000000000E9    -6.565586213252781E-1    7.052662378772181E-1
 8.400000000000000E9    -5.421319952188336E-1    7.994431345949492E-1
 8.410000000000000E9    -4.191914538550710E-1    8.715673262243302E-1
 8.420000000000000E9    -2.908659255478681E-1    9.223143814102812E-1
 8.430000000000000E9    -1.598734378383101E-1    9.532590897297516E-1
 8.440000000000000E9    -2.887884157687954E-2    9.653841257632072E-1
 8.450000000000000E9     9.976011963293667E-2    9.604511036966640E-1
 8.460000000000000E9     2.237202474214492E-1    9.399281895343228E-1
 8.470000000000000E9     3.408335700590880E-1    9.058754043514325E-1
 8.480000000000000E9     4.493595511127459E-1    8.596691720856264E-1
 8.490000000000000E9     5.483521669027288E-1    8.028321777714864E-1
 8.500000000000000E9     6.370105377229830E-1    7.369013657131180E-1
 8.510000000000000E9     7.157244784509637E-1    6.616469308794471E-1
 8.520000000000000E9     7.844092039733682E-1    5.783752657265692E-1
 8.530000000000000E9     8.424692023502701E-1    4.876034532904208E-1
 8.540000000000000E9     8.901129295176800E-1    3.904773012666434E-1
 8.550000000000000E9     9.272212267676230E-1    2.883049748893270E-1
 8.560000000000000E9     9.533064909237121E-1    1.823060063143483E-1
 8.570000000000000E9     9.681800505376418E-1    7.447329768136271E-2
 8.580000000000000E9     9.717222017926167E-1   -3.376355724718031E-2
 8.590000000000000E9     9.635289513849162E-1   -1.406993615713114E-1
 8.600000000000000E9     9.433415485901993E-1   -2.454905794018702E-1
 8.610000000000000E9     9.112390751370965E-1   -3.470091872324722E-1
 8.620000000000000E9     8.670108569401542E-1   -4.445828946052157E-1
 8.630000000000000E9     8.108703435747086E-1   -5.375198777782649E-1
 8.640000000000000E9     7.434057863340109E-1   -6.247174627763493E-1
 8.650000000000000E9     6.654247773879784E-1   -7.048724538852290E-1
 8.660000000000000E9     5.778893471548517E-1   -7.771654283463081E-1
 8.670000000000000E9     4.821892238340448E-1   -8.399135117061436E-1
 8.680000000000000E9     3.799441952176382E-1   -8.915199646355281E-1
 8.690000000000000E9     2.725271870891571E-1   -9.309629192323576E-1
 8.700000000000000E9     1.611927131403652E-1   -9.573926344307726E-1
 8.710000000000000E9     4.753420014777751E-2   -9.695740499976223E-1
 8.720000000000000E9    -6.768830291309864E-2   -9.676949985199931E-1
 8.730000000000000E9    -1.830724998178695E-1   -9.511122544845947E-1
 8.740000000000000E9    -2.967863567548872E-1   -9.200450483701137E-1
 8.750000000000000E9    -4.073337732855651E-1   -8.750706036223539E-1
 8.760000000000000E9    -5.122355953605072E-1   -8.172940783525139E-1
 8.770000000000000E9    -6.097605882628048E-1   -7.477348455580891E-1
 8.780000000000000E9    -6.976248851811468E-1   -6.679267083403739E-1
 8.790000000000000E9    -7.745508234080223E-1   -5.795416044092715E-1
 8.800000000000000E9    -8.393377811484630E-1   -4.835865525408097E-1
 8.810000000000000E9    -8.909933386236397E-1   -3.816745410079270E-1
 8.820000000000000E9    -9.292295508338205E-1   -2.747442970625880E-1
 8.830000000000000E9    -9.538301847168204E-1   -1.641906785989088E-1
 8.840000000000000E9    -9.651188179715323E-1   -5.133594075228201E-2
 8.850000000000000E9    -9.635343795791020E-1    6.203388094018751E-2
 8.860000000000000E9    -9.493531238796226E-1    1.743261498657022E-1
 8.870000000000000E9    -9.233500212099609E-1    2.833892758362290E-1
 8.880000000000000E9    -8.861109288055884E-1    3.873752788479807E-1
 8.890000000000000E9    -8.387299816314142E-1    4.847377144627295E-1
 8.900000000000000E9    -7.819114475387974E-1    5.744170166318286E-1
 8.910000000000000E9    -7.164817058204449E-1    6.553870934201418E-1
 8.920000000000000E9    -6.430132162628529E-1    7.276921206001484E-1
 8.930000000000000E9    -5.622167189388458E-1    7.910757393520690E-1
 8.940000000000000E9    -4.749706986838572E-1    8.452566305095354E-1
 8.950000000000000E9    -3.823561643435824E-1    8.900816197672543E-1
 8.960000000000000E9    -2.856810408081197E-1    9.255091667472896E-1
 8.970000000000000E9    -1.861682851677263E-1    9.509750703935472E-1
 8.980000000000000E9    -8.529245417601490E-2    9.663247412085552E-1
 8.990000000000000E9     1.549870181688209E-2    9.713793075134103E-1
 9.000000000000000E9     1.154103054775442E-1    9.660035357906676E-1
 9.010000000000000E9     2.131678028490249E-1    9.500561631305672E-1
 9.020000000000000E9     3.084011736332601E-1    9.233878623162944E-1
 9.030000000000000E9     4.010356787461969E-1    8.862100784327240E-1
 9.040000000000000E9     4.905767109601482E-1    8.385660263448789E-1
 9.050000000000000E9     5.760548291742084E-1    7.808049056313613E-1
 9.060000000000000E9     6.564743971296902E-1    7.129604929839313E-1
 9.070000000000000E9     7.309986315993278E-1    6.361610153573951E-1
 9.080000000000000E9     7.980505768352092E-1    5.505121727760518E-1
 9.090000000000000E9     8.559065972248914E-1    4.570913078839083E-1
 9.100000000000000E9     9.029857369789080E-1    3.568297992968471E-1
 9.110000000000000E9     9.382362728013944E-1    2.506401917575149E-1
 9.120000000000000E9     9.602258402065531E-1    1.390344222541248E-1
 9.130000000000000E9     9.682148005082479E-1    2.327624054997074E-2
 9.140000000000000E9     9.614598373783738E-1   -9.591974086101450E-2
 9.150000000000000E9     9.390298540376156E-1   -2.169600405220463E-1
 9.160000000000000E9     8.998141862189581E-1   -3.385270666983807E-1
 9.170000000000000E9     8.433659649182154E-1   -4.575756813648462E-1
 9.180000000000000E9     7.694408845574229E-1   -5.712781668862449E-1
 9.190000000000000E9     6.782826935278384E-1   -6.758589732704933E-1
 9.200000000000000E9     5.708534861928154E-1   -7.673234216567327E-1
 9.210000000000000E9     4.495157964048889E-1   -8.427236042400764E-1
 9.220000000000000E9     3.165000861230121E-1   -8.991376458554660E-1
 9.230000000000000E9     1.743017971844553E-1   -9.343234196775749E-1
 9.240000000000000E9     2.674581877249485E-2   -9.472774678320928E-1
 9.250000000000000E9    -1.230638211090780E-1   -9.370477557949829E-1
 9.260000000000000E9    -2.708674961092405E-1   -9.033116873555707E-1
 9.270000000000000E9    -4.122691248584631E-1   -8.467620577923066E-1
 9.280000000000000E9    -5.428118773896302E-1   -7.688386786526678E-1
 9.290000000000000E9    -6.584759105559584E-1   -6.723664622137513E-1
 9.300000000000000E9    -7.556390834934814E-1   -5.605718707967319E-1
 9.310000000000000E9    -8.325661349995376E-1   -4.377836972337102E-1
 9.320000000000000E9    -8.880610810367633E-1   -3.078453186816288E-1
 9.330000000000000E9    -9.229240113400190E-1   -1.748340491432243E-1
 9.340000000000000E9    -9.378013681802106E-1   -4.187949486677049E-2
 9.350000000000000E9    -9.347793419564643E-1    8.814342756724641E-2
 9.360000000000000E9    -9.152912454733689E-1    2.132326678914737E-1
 9.370000000000000E9    -8.808758245081915E-1    3.314907332510553E-1
 9.380000000000000E9    -8.335083300562939E-1    4.410640928416262E-1
 9.390000000000000E9    -7.748376192487773E-1    5.404818818026247E-1
 9.400000000000000E9    -7.071101540613830E-1    6.285457274112901E-1
 9.410000000000000E9    -6.324250178179122E-1    7.051780698943930E-1
 9.420000000000000E9    -5.526206503775836E-1    7.700655134246611E-1
 9.430000000000000E9    -4.696862141659002E-1    8.240241664282865E-1
 9.440000000000000E9    -3.848552159471936E-1    8.677019145369623E-1
 9.450000000000000E9    -2.990072873956907E-1    9.019402207448183E-1
 9.460000000000000E9    -2.127901114910461E-1    9.275953581804977E-1
 9.470000000000000E9    -1.270211670530418E-1    9.447638937266392E-1
 9.480000000000000E9    -4.192536378645131E-2    9.537716127775691E-1
 9.490000000000000E9     4.179335258396329E-2    9.552113461696983E-1
 9.500000000000000E9     1.236089404780373E-1    9.487972394613641E-1
 9.510000000000000E9     2.027707104420709E-1    9.358230777200472E-1
 9.520000000000000E9     2.789539005323723E-1    9.164102236226118E-1
 9.530000000000000E9     3.515779838635722E-1    8.912705307332031E-1
 9.540000000000000E9     4.205396976344586E-1    8.611987590260151E-1
 9.550000000000000E9     4.858432442263302E-1    8.267819800012818E-1
 9.560000000000000E9     5.474646719649060E-1    7.885376691619577E-1
 9.570000000000000E9     6.053723643121505E-1    7.464928248140099E-1
 9.580000000000000E9     6.597085562859621E-1    7.007793651810600E-1
 9.590000000000000E9     7.100119162530242E-1    6.513883404920252E-1
 9.600000000000000E9     7.563320456615471E-1    5.982838615545628E-1
 9.610000000000000E9     7.983035925407250E-1    5.416418271361634E-1
 9.620000000000000E9     8.357488428298749E-1    4.816475184777088E-1
 9.630000000000000E9     8.686224786196449E-1    4.188819444284653E-1
 9.640000000000000E9     8.967569050441720E-1    3.539085040695786E-1
 9.650000000000000E9     9.202293461189618E-1    2.872397563175530E-1
 9.660000000000000E9     9.392261958415190E-1    2.188085281654557E-1
 9.670000000000000E9     9.535562640496839E-1    1.490620798978708E-1
 9.680000000000000E9     9.628219647793588E-1    7.783650878762173E-2
 9.690000000000000E9     9.667323173211679E-1    5.413872999049026E-3
 9.700000000000000E9     9.647111590736447E-1   -6.848141205522655E-2
 9.710000000000000E9     9.566279160495965E-1   -1.435408363839739E-1
 9.720000000000000E9     9.417751948284068E-1   -2.193255805509245E-1
 9.730000000000000E9     9.201185497665832E-1   -2.953919150150761E-1
 9.740000000000000E9     8.915802054517153E-1   -3.711697488574528E-1
 9.750000000000000E9     8.560657955139019E-1   -4.462614484923835E-1
 9.760000000000000E9     8.133661503853813E-1   -5.196857385978093E-1
 9.770000000000000E9     7.636096730950659E-1   -5.908030840931880E-1
 9.780000000000000E9     7.060980935122444E-1   -6.593459266901600E-1
 9.790000000000000E9     6.404764640011962E-1   -7.241043927070206E-1
 9.800000000000000E9     5.659779410328070E-1   -7.840807963535281E-1
 9.810000000000000E9     4.820152999567938E-1   -8.381174604983191E-1
 9.820000000000000E9     3.881128388071587E-1   -8.844770970348840E-1
 9.830000000000000E9     2.849941374824895E-1   -9.216678697991355E-1
 9.840000000000000E9     1.732682015514029E-1   -9.475989125210897E-1
 9.850000000000000E9     5.429007595823049E-2   -9.603417339857027E-1
 9.860000000000000E9    -7.009638733378148E-2   -9.586491422650371E-1
 9.870000000000000E9    -1.975858713427600E-1   -9.407437246111244E-1
 9.880000000000000E9    -3.258059654812253E-1   -9.045404013808260E-1
 9.890000000000000E9    -4.519310251886840E-1   -8.485684926704330E-1
 9.900000000000000E9    -5.724973425473973E-1   -7.715235321606462E-1
 9.910000000000000E9    -6.833701429098148E-1   -6.730021175183625E-1
 9.920000000000000E9    -7.799617352271494E-1   -5.536596628414356E-1
 9.930000000000000E9    -8.575392949170664E-1   -4.158914482629731E-1
 9.940000000000000E9    -9.121937024412491E-1   -2.642798938217559E-1
 9.950000000000000E9    -9.410605456810809E-1   -1.038550723992854E-1
 9.960000000000000E9    -9.425484641713838E-1    5.913105174633932E-2
 9.970000000000000E9    -9.171219066959265E-1    2.183375651680969E-1
 9.980000000000000E9    -8.661607717368233E-1    3.685265541112479E-1
 9.990000000000000E9    -7.924527598615710E-1    5.052299844827540E-1
 1.000000000000000E+10  -6.994192055757695E-1    6.251092761780070E-1
 1.001000000000000E+10  -5.896020132453247E-1    7.257856082038350E-1
 1.002000000000000E+10  -4.688032290586902E-1    8.056487243739592E-1
 1.003000000000000E+10  -3.414008191005714E-1    8.646219789157302E-1
 1.004000000000000E+10  -2.118139031548505E-1    9.033808109671259E-1
 1.005000000000000E+10  -8.405550876060131E-2    9.232986029838540E-1
 1.006000000000000E+10   3.848098354273458E-2    9.268658643133250E-1
 1.007000000000000E+10   1.545442725614913E-1    9.155627059921980E-1
 1.008000000000000E+10   2.624132967021737E-1    8.918693033784953E-1
 1.009000000000000E+10   3.620439092725005E-1    8.571893784643947E-1
 1.010000000000000E+10   4.533911555193104E-1    8.125270899427277E-1
 1.011000000000000E+10   5.367846384866934E-1    7.594272445694630E-1
 1.012000000000000E+10   6.120204057173275E-1    6.988570592543601E-1
 1.013000000000000E+10   6.794913623069555E-1    6.325731366616800E-1
 1.014000000000000E+10   7.387518289694793E-1    5.624720641503348E-1
 1.015000000000000E+10   7.902688537056727E-1    4.897939563967933E-1
 1.016000000000000E+10   8.338153271376029E-1    4.158049431634961E-1
 1.017000000000000E+10   8.696363102396615E-1    3.419260389649746E-1
 1.018000000000000E+10   8.979648657265352E-1    2.682737866554176E-1
 1.019000000000000E+10   9.188180375602745E-1    1.951974062062108E-1
 1.020000000000000E+10   9.325901474406865E-1    1.226130774600425E-1
 1.021000000000000E+10   9.397127187001891E-1    4.980656852134421E-2
 1.022000000000000E+10   9.402886062658751E-1   -2.347016912867891E-2
 1.023000000000000E+10   9.348473598987550E-1   -9.718281011876842E-2
 1.024000000000000E+10   9.233692745531501E-1   -1.707444442842073E-1
 1.025000000000000E+10   9.069706734034040E-1   -2.436261636872892E-1
 1.026000000000000E+10   8.855841655349638E-1   -3.146378400547643E-1
 1.027000000000000E+10   8.600415426006218E-1   -3.828410334444607E-1
 1.028000000000000E+10   8.305744070928409E-1   -4.475790395737416E-1
 1.029000000000000E+10   7.974851596642200E-1   -5.082795575679694E-1
 1.030000000000000E+10   7.603258690405018E-1   -5.650393722471893E-1
 1.031000000000000E+10   7.186128163000213E-1   -6.181264633793332E-1
 1.032000000000000E+10   6.722553388209367E-1   -6.677394773529163E-1
 1.033000000000000E+10   6.208267116378200E-1   -7.139980451553638E-1
 1.034000000000000E+10   5.646717533783069E-1   -7.571536777359504E-1
 1.035000000000000E+10   5.039808155888384E-1   -7.969878230171058E-1
 1.036000000000000E+10   4.391552761283010E-1   -8.333550409923104E-1
 1.037000000000000E+10   3.711940653935840E-1   -8.655800682427026E-1
 1.038000000000000E+10   3.009540415173260E-1   -8.931764331273957E-1
 1.039000000000000E+10   2.291836423873156E-1   -9.153298313927382E-1
 1.040000000000000E+10   1.560605257140877E-1   -9.314729366630874E-1
 1.041000000000000E+10   8.167941164984510E-2   -9.414559963513179E-1
 1.042000000000000E+10   6.092567873616282E-3   -9.444506967636040E-1
 1.043000000000000E+10  -7.130700897927485E-2   -9.403712652973796E-1
 1.044000000000000E+10  -1.505633560022622E-1   -9.288808137709932E-1
 1.045000000000000E+10  -2.313405184958760E-1   -9.096443168911692E-1
 1.046000000000000E+10  -3.129480346170404E-1   -8.828471918795919E-1
 1.047000000000000E+10  -3.943807305674971E-1   -8.483273358281459E-1
 1.048000000000000E+10  -4.741078485745667E-1   -8.060061014097584E-1
 1.049000000000000E+10  -5.508683676891974E-1   -7.562875072711711E-1
 1.050000000000000E+10  -6.228084503836041E-1   -6.989066996597814E-1
 1.051000000000000E+10  -6.894965033515725E-1   -6.339055945647453E-1
 1.052000000000000E+10  -7.495367477848514E-1   -5.611212093884975E-1
 1.053000000000000E+10  -8.024940079786512E-1   -4.800682226707061E-1
 1.054000000000000E+10  -8.473728728408384E-1   -3.905989078252071E-1
 1.055000000000000E+10  -8.835374642691515E-1   -2.929148056939905E-1
 1.056000000000000E+10  -9.094971965950528E-1   -1.879693933797758E-1
 1.057000000000000E+10  -9.248993443403514E-1   -7.747624030064058E-2
 1.058000000000000E+10  -9.280485327035595E-1    3.669439037040809E-2
 1.059000000000000E+10  -9.177815779822218E-1    1.519628687074047E-1
 1.060000000000000E+10  -8.937420450565610E-1    2.658902961231083E-1
 1.061000000000000E+10  -8.552011216911212E-1    3.765469133591504E-1
 1.062000000000000E+10  -8.022496902191301E-1    4.818024486026828E-1
 1.063000000000000E+10  -7.345820568119686E-1    5.801603887079471E-1
 1.064000000000000E+10  -6.528606331067717E-1    6.698971923966505E-1
 1.065000000000000E+10  -5.578849245572425E-1    7.499960169727877E-1
 1.066000000000000E+10  -4.512512479600703E-1    8.185494392100442E-1
 1.067000000000000E+10  -3.349020850566282E-1    8.738052307185525E-1
 1.068000000000000E+10  -2.117165551287725E-1    9.140553975884387E-1
 1.069000000000000E+10  -8.518898521453945E-2    9.380265855642325E-1
 1.070000000000000E+10   4.171647644292222E-2    9.451806301299860E-1
 1.071000000000000E+10   1.658797859560577E-1    9.354811330896148E-1
 1.072000000000000E+10   2.851758819277312E-1    9.094233373184758E-1
 1.073000000000000E+10   3.984489272746722E-1    8.679879382634450E-1
 1.074000000000000E+10   5.042445610070801E-1    8.122336596956137E-1
 1.075000000000000E+10   6.020571745546413E-1    7.433398904059552E-1
 1.076000000000000E+10   6.905092038790627E-1    6.631409727766423E-1
 1.077000000000000E+10   7.688887582261963E-1    5.729733982444716E-1
 1.078000000000000E+10   8.354387048106339E-1    4.756452856107733E-1
 1.079000000000000E+10   8.892666402522331E-1    3.729420846811144E-1
 1.080000000000000E+10   9.299213584308441E-1    2.677618694047091E-1
 1.081000000000000E+10   9.572021340252083E-1    1.616383044677450E-1
 1.082000000000000E+10   9.710018250090803E-1    5.638452362299701E-2
 1.083000000000000E+10   9.727281393456804E-1   -4.747014198016775E-2
 1.084000000000000E+10   9.623281518390827E-1   -1.493861448797532E-1
 1.085000000000000E+10   9.412289747962126E-1   -2.486416861014921E-1
 1.086000000000000E+10   9.099896585212175E-1   -3.453955973513507E-1
 1.087000000000000E+10   8.693277730912246E-1   -4.384980240275405E-1
 1.088000000000000E+10   8.202793551105959E-1   -5.261910270980632E-1
 1.089000000000000E+10   7.637373314791628E-1   -6.081498531186551E-1
 1.090000000000000E+10   7.004058866497774E-1   -6.825603723984817E-1
 1.091000000000000E+10   6.311315073488222E-1   -7.487637435204398E-1
 1.092000000000000E+10   5.571991105561516E-1   -8.059226865009171E-1
 1.093000000000000E+10   4.795615963619456E-1   -8.542297427017201E-1
 1.094000000000000E+10   3.979933700389992E-1   -8.940776638906216E-1
 1.095000000000000E+10   3.131722874862617E-1   -9.258193039080752E-1
 1.096000000000000E+10   2.250079628402147E-1   -9.492355594044932E-1
 1.097000000000000E+10   1.340802982858535E-1   -9.654009826580693E-1
 1.098000000000000E+10   4.132071947756875E-2   -9.731326646921741E-1
 1.099000000000000E+10  -5.201304356500433E-2   -9.725691126654269E-1
 1.100000000000000E+10  -1.446197752396490E-1   -9.636022524335968E-1
 1.101000000000000E+10  -2.349799329689594E-1   -9.461438519092026E-1
 1.102000000000000E+10  -3.218778447621118E-1   -9.199076507744610E-1
 1.103000000000000E+10  -4.048138020178427E-1   -8.855835600547095E-1
 1.104000000000000E+10  -4.832188010267890E-1   -8.431375147152681E-1
 1.105000000000000E+10  -5.570015301703467E-1   -7.934188626971151E-1
 1.106000000000000E+10  -6.265324082840825E-1   -7.365702601427756E-1
 1.107000000000000E+10  -6.913579831719947E-1   -6.726233634608884E-1
 1.108000000000000E+10  -7.510476754982123E-1   -6.022064451471182E-1
 1.109000000000000E+10  -8.048496062490897E-1   -5.255315036469707E-1
 1.110000000000000E+10  -8.520347329532855E-1   -4.434680629536235E-1
 1.111000000000000E+10  -8.912149581170549E-1   -3.568327511910690E-1
 1.112000000000000E+10  -9.211764638585485E-1   -2.668787821492220E-1
 1.113000000000000E+10  -9.415386875473895E-1   -1.746046647760767E-1
 1.114000000000000E+10  -9.520708136996139E-1   -8.097195933324228E-2
 1.115000000000000E+10  -9.528009784034427E-1    1.306276851767237E-2
 1.116000000000000E+10  -9.441343616458101E-1    1.070128669658449E-1
 1.117000000000000E+10  -9.260769152382496E-1    2.002704334506355E-1
 1.118000000000000E+10  -8.990490907883363E-1    2.923891311519619E-1
 1.119000000000000E+10  -8.630729272094643E-1    3.821956763289351E-1
 1.120000000000000E+10  -8.182106483381696E-1    4.685338920219947E-1
 1.121000000000000E+10  -7.646842698611168E-1    5.501065535316809E-1
 1.122000000000000E+10  -7.029251373327082E-1    6.256669071624014E-1
 1.123000000000000E+10  -6.336249816409935E-1    6.938838143935432E-1
 1.124000000000000E+10  -5.579234708564919E-1    7.538118961463988E-1
 1.125000000000000E+10  -4.764468266033478E-1    8.054194051055944E-1
 1.126000000000000E+10  -3.905442366138604E-1    8.479079947996770E-1
 1.127000000000000E+10  -3.007937341403847E-1    8.817640676280057E-1
 1.128000000000000E+10  -2.078296773572037E-1    9.065557758651205E-1
 1.129000000000000E+10  -1.125784653717099E-1    9.224455288772689E-1
 1.130000000000000E+10  -1.620750838765694E-2    9.287615218186892E-1
 1.131000000000000E+10   8.001420964321389E-2    9.256856210808885E-1
 1.132000000000000E+10   1.749726841671494E-1    9.125633232786275E-1
 1.133000000000000E+10   2.676075495618978E-1    8.896490830554229E-1
 1.134000000000000E+10   3.564805204302123E-1    8.576226095163195E-1
 1.135000000000000E+10   4.407514444566746E-1    8.169359548885661E-1
 1.136000000000000E+10   5.199852253360541E-1    7.679744096400566E-1
 1.137000000000000E+10   5.937144080191898E-1    7.122624259152398E-1
 1.138000000000000E+10   6.616340521819362E-1    6.503225287004044E-1
 1.139000000000000E+10   7.233061108767438E-1    5.821991868679427E-1
 1.140000000000000E+10   7.783978532724782E-1    5.088010688295599E-1
 1.141000000000000E+10   8.262965977941048E-1    4.306206109498775E-1
 1.142000000000000E+10   8.659997896147223E-1    3.481612374060543E-1
 1.143000000000000E+10   8.970439101705850E-1    2.624611646680908E-1
 1.144000000000000E+10   9.190468340386009E-1    1.743015818387677E-1
 1.145000000000000E+10   9.318618562388420E-1    8.475361741294916E-2
 1.146000000000000E+10   9.361635109568158E-1   -5.186977516201723E-3
 1.147000000000000E+10   9.319194915033208E-1   -9.485636203691516E-2
 1.148000000000000E+10   9.197189337265224E-1   -1.838804641942205E-1
 1.149000000000000E+10   8.993768995773892E-1   -2.712872349330269E-1
 1.150000000000000E+10   8.713419941061686E-1   -3.567630288713090E-1
 1.151000000000000E+10   8.353511113443649E-1   -4.394290508061489E-1
 1.152000000000000E+10   7.915584764134574E-1   -5.181948232065491E-1
 1.153000000000000E+10   7.401722580487979E-1   -5.925275859692342E-1
 1.154000000000000E+10   6.811921768054008E-1   -6.614567256281958E-1
 1.155000000000000E+10   6.154675112206283E-1   -7.241348269421650E-1
 1.156000000000000E+10   5.436111611232923E-1   -7.799901632302555E-1
 1.157000000000000E+10   4.666678519591861E-1   -8.287454923400664E-1
 1.158000000000000E+10   3.855281714496389E-1   -8.702304784243905E-1
 1.159000000000000E+10   3.007645519680190E-1   -9.038340425020779E-1
 1.160000000000000E+10   2.126350968292561E-1   -9.299212766412985E-1
 1.161000000000000E+10   1.220912391398982E-1   -9.475660492563319E-1
 1.162000000000000E+10   2.905711613134536E-2   -9.563652757335458E-1
 1.163000000000000E+10  -6.529960327235629E-2   -9.554999310938089E-1
 1.164000000000000E+10  -1.603047798353559E-1   -9.444970491735045E-1
 1.165000000000000E+10  -2.548858299389458E-1   -9.237145230585322E-1
 1.166000000000000E+10  -3.473217280116417E-1   -8.927447789528004E-1
 1.167000000000000E+10  -4.369365483183693E-1   -8.523290763366214E-1
 1.168000000000000E+10  -5.222624304855422E-1   -8.031705475727172E-1
 1.169000000000000E+10  -6.027994926550386E-1   -7.452816048029152E-1
 1.170000000000000E+10  -6.775695978678841E-1   -6.796127066486682E-1
 1.171000000000000E+10  -7.451863567033602E-1   -6.060208728088277E-1
 1.172000000000000E+10  -8.048564256635583E-1   -5.253095396024825E-1
 1.173000000000000E+10  -8.559582024843868E-1   -4.373003251565836E-1
 1.174000000000000E+10  -8.973746379551659E-1   -3.428174301983952E-1
 1.175000000000000E+10  -9.281979310939354E-1   -2.427606368950928E-1
 1.176000000000000E+10  -9.481838254266812E-1   -1.381211347446439E-1
 1.177000000000000E+10  -9.564539149327446E-1   -3.048039703711860E-2
 1.178000000000000E+10  -9.529146582168734E-1    7.834401930240199E-2
 1.179000000000000E+10  -9.375468970805561E-1    1.863504801918101E-1
 1.180000000000000E+10  -9.103160920543836E-1    2.920306238926546E-1
 1.181000000000000E+10  -8.716266188772027E-1    3.935992785861147E-1
 1.182000000000000E+10  -8.218002111145919E-1    4.899930748099559E-1
 1.183000000000000E+10  -7.602245010873332E-1    5.801323289262814E-1
 1.184000000000000E+10  -6.879470091087594E-1    6.619257075672351E-1
 1.185000000000000E+10  -6.059691398154893E-1    7.347280549257472E-1
 1.186000000000000E+10  -5.152679171286736E-1    7.976548928168873E-1
 1.187000000000000E+10  -4.177656579946289E-1    8.497100626146740E-1
 1.188000000000000E+10  -3.152439383178762E-1    8.908032285579679E-1
 1.189000000000000E+10  -2.095554799869326E-1    9.201408548702549E-1
 1.190000000000000E+10  -1.025816662515140E-1    9.377775727076465E-1
 1.191000000000000E+10   4.755708689566989E-3    9.435106780096214E-1
 1.192000000000000E+10   1.107139933907746E-1    9.369021974711239E-1
 1.193000000000000E+10   2.141110934470177E-1    9.179386804761446E-1
 1.194000000000000E+10   3.139291115999580E-1    8.869246182528983E-1
 1.195000000000000E+10   4.089173398712175E-1    8.447328683716371E-1
 1.196000000000000E+10   4.983737494398373E-1    7.919893020328281E-1
 1.197000000000000E+10   5.810013720298389E-1    7.302811285145738E-1
 1.198000000000000E+10   6.561954498394139E-1    6.609386695817919E-1
 1.199000000000000E+10   7.230799746095039E-1    5.858021438717071E-1
 1.200000000000000E+10   7.809825208636157E-1    5.061797496144101E-1
 1.201000000000000E+10   8.296072374515948E-1    4.233335064629121E-1
 1.202000000000000E+10   8.686152912916446E-1    3.382532877156126E-1
 1.203000000000000E+10   8.978772661147052E-1    2.513916336684659E-1
 1.204000000000000E+10   9.175603970141835E-1    1.632986138499620E-1
 1.205000000000000E+10   9.279513854702800E-1    7.415520056011748E-2
 1.206000000000000E+10   9.291844771142543E-1   -1.544737191929318E-2
 1.207000000000000E+10   9.217586201343411E-1   -1.046295210901056E-1
 1.208000000000000E+10   9.062673333061680E-1   -1.928200179172362E-1
 1.209000000000000E+10   8.834450700640584E-1   -2.784741252873285E-1
 1.210000000000000E+10   8.539796031005519E-1   -3.605943833008781E-1
 1.211000000000000E+10   8.183433797857007E-1   -4.384691037660741E-1
 1.212000000000000E+10   7.767962079697500E-1   -5.112450427289081E-1
 1.213000000000000E+10   7.296301008881455E-1   -5.784695607740703E-1
 1.214000000000000E+10   6.766801730009051E-1   -6.401762199687682E-1
 1.215000000000000E+10   6.186981768040232E-1   -6.959789784689095E-1
 1.216000000000000E+10   5.554470704279600E-1   -7.463164005516973E-1
 1.217000000000000E+10   4.876579460460973E-1   -7.910789039374018E-1
 1.218000000000000E+10   4.160082019668137E-1   -8.302643193508253E-1
 1.219000000000000E+10   3.415196519826708E-1   -8.639545115634799E-1
 1.220000000000000E+10   2.651493830642409E-1   -8.917990104107852E-1
 1.221000000000000E+10   1.875647003304500E-1   -9.132878781302410E-1
 1.222000000000000E+10   1.096173425479765E-1   -9.286446171594112E-1
 1.223000000000000E+10   3.218136975838085E-2   -9.368119119781102E-1
 1.224000000000000E+10  -4.479146280298783E-2   -9.377795968879979E-1
 1.225000000000000E+10  -1.214860516192663E-1   -9.316168292175171E-1
 1.226000000000000E+10  -1.976653508234109E-1   -9.182970348281416E-1
 1.227000000000000E+10  -2.738405018377543E-1   -8.973182868085048E-1
 1.228000000000000E+10  -3.491640642961831E-1   -8.695152187179679E-1
 1.229000000000000E+10  -4.232279660668458E-1   -8.353368892035201E-1
 1.230000000000000E+10  -4.952162936628454E-1   -7.953268436218253E-1
 1.231000000000000E+10  -5.644753761210812E-1   -7.498214778189869E-1
 1.232000000000000E+10  -6.297355103168911E-1   -6.996769054827853E-1
 1.233000000000000E+10  -6.898084696226376E-1   -6.448114595353724E-1
 1.234000000000000E+10  -7.443674322252641E-1   -5.857647457111473E-1
 1.235000000000000E+10  -7.930343274342262E-1   -5.218818824522149E-1
 1.236000000000000E+10  -8.352148128232656E-1   -4.534686908134748E-1
 1.237000000000000E+10  -8.713828107854502E-1   -3.799057168252806E-1
 1.238000000000000E+10  -9.008021995785795E-1   -3.015398379358668E-1
 1.239000000000000E+10  -9.239944575102889E-1   -2.183925221102258E-1
 1.240000000000000E+10  -9.403326431043336E-1   -1.316986112102785E-1
 1.241000000000000E+10  -9.495597100696376E-1   -4.244912173671171E-2
 1.242000000000000E+10  -9.510656528404180E-1    4.834913936470102E-2
 1.243000000000000E+10  -9.444651939981469E-1    1.392847399626115E-1
 1.244000000000000E+10  -9.296220707323251E-1    2.288702328655213E-1
 1.245000000000000E+10  -9.056335241225706E-1    3.166011573524444E-1
 1.246000000000000E+10  -8.722307927849732E-1    4.020766759334145E-1
 1.247000000000000E+10  -8.295089655491594E-1    4.843688085200558E-1
 1.248000000000000E+10  -7.771249203666443E-1    5.634917255066115E-1
 1.249000000000000E+10  -7.152409026759525E-1    6.389066734421317E-1
 1.250000000000000E+10  -6.443495376926880E-1    7.091876194809685E-1
