#  HZ   S   RI   R     50.00 
! Rohde & Schwarz Vector Network Analyzer 
! Rohde-Schwarz,ZNA43-4Port,1332450044101932,2.92
! Created: UTC 6/1/2026, 11:34:26 AM
! freq[Hz]                re:S11                  im:S11
 8.000000000000000E9     6.648998856226263E-1    7.149796825777079E-1
 8.010000000000000E9     7.295067850985667E-1    6.492412876936600E-1
 8.020000000000000E9     7.891510790228811E-1    5.744063712129479E-1
 8.030000000000000E9     8.429039916007759E-1    4.899360673239581E-1
 8.040000000000000E9     8.893801191652343E-1    3.953960863839033E-1
 8.050000000000000E9     9.269951686936112E-1    2.911910997028149E-1
 8.060000000000000E9     9.537738837152125E-1    1.781136642266654E-1
 8.070000000000000E9     9.677766568076747E-1    5.698378194643274E-2
 8.080000000000000E9     9.664996690397637E-1   -7.071929616554884E-2
 8.090000000000000E9     9.475642613406438E-1   -2.029137704325551E-1
 8.100000000000000E9     9.075420092347480E-1   -3.377985078823781E-1
 8.110000000000000E9     8.437509583579346E-1   -4.721261602920568E-1
 8.120000000000000E9     7.538952494040748E-1   -6.016143488236656E-1
 8.130000000000000E9     6.361544033580443E-1   -7.204771311001453E-1
 8.140000000000000E9     4.908885074486475E-1   -8.221891940257779E-1
 8.150000000000000E9     3.205886030250700E-1   -8.990071400079249E-1
 8.160000000000000E9     1.307129429108642E-1   -9.435808054635311E-1
 8.170000000000000E9    -7.083178355659317E-2   -9.491942761409936E-1
 8.180000000000000E9    -2.736180479530015E-1   -9.118592636332198E-1
 8.190000000000000E9    -4.661585639153801E-1   -8.302821709737592E-1
 8.200000000000000E9    -6.369896263020229E-1   -7.074442638957402E-1
 8.210000000000000E9    -7.759820467926883E-1   -5.494975344565067E-1
 8.220000000000000E9    -8.759504896909196E-1   -3.666070160911725E-1
 8.230000000000000E9    -9.332528629952213E-1   -1.701224015507126E-1
 8.240000000000000E9    -9.483049443197200E-1    2.833819409408770E-2
 8.250000000000000E9    -9.240739137092674E-1    2.181181189507582E-1
 8.260000000000000E9    -8.650199443852487E-1    3.910926875296892E-1
 8.270000000000000E9    -7.752502078096358E-1    5.370143919573430E-1
 8.280000000000000E9    -6.797093896697870E-1    6.421716796320550E-1
 8.290000000000000E9    -5.865788314071877E-1    7.491837430698656E-1
 8.300000000000000E9    -4.666885764951029E-1    8.380939917483970E-1
 8.310000000000000E9    -3.371143564152572E-1    9.004928090310429E-1
 8.320000000000000E9    -2.047882752776727E-1    9.401490859946470E-1
 8.330000000000000E9    -7.326466138634882E-2    9.599330909741056E-1
 8.340000000000000E9     5.465412942543180E-2    9.623138398801254E-1
 8.350000000000000E9     1.768249184658028E-1    9.492694652158266E-1
 8.360000000000000E9     2.916895412292203E-1    9.231866419502480E-1
 8.370000000000000E9     3.985833110781731E-1    8.851647669076241E-1
 8.380000000000000E9     4.965615643720357E-1    8.362910194691269E-1
 8.390000000000000E9     5.857107074642192E-1    7.775213013071215E-1
 8.400000000000000E9     6.660784780365735E-1    7.096606629210510E-1
 8.410000000000000E9     7.376544699918789E-1    6.335953295768463E-1
 8.420000000000000E9     8.003238233636470E-1    5.501815158570735E-1
 8.430000000000000E9     8.540924329537811E-1    4.605259524455781E-1
 8.440000000000000E9     8.983947973209468E-1    3.661853741390902E-1
 8.450000000000000E9     9.329876208833242E-1    2.685952473890581E-1
 8.460000000000000E9     9.571610384103323E-1    1.690269987591937E-1
 8.470000000000000E9     9.709633418184005E-1    6.839294830951026E-2
 8.480000000000000E9     9.737680298443908E-1   -3.228264226147361E-2
 8.490000000000000E9     9.655282141619180E-1   -1.327501856091383E-1
 8.500000000000000E9     9.462206419774334E-1   -2.325408858829054E-1
 8.510000000000000E9     9.145592827888703E-1   -3.313258429088343E-1
 8.520000000000000E9     8.712963025289596E-1   -4.285125484398707E-1
 8.530000000000000E9     8.166186317385087E-1   -5.222163517121672E-1
 8.540000000000000E9     7.512279296001398E-1   -6.112772750229045E-1
 8.550000000000000E9     6.757875258202419E-1   -6.939539840962563E-1
 8.560000000000000E9     5.910121644391070E-1   -7.682161484283487E-1
 8.570000000000000E9     4.982766142793620E-1   -8.325699720453010E-1
 8.580000000000000E9     3.979457387851149E-1   -8.856669299745731E-1
 8.590000000000000E9     2.912848238707603E-1   -9.261532603032157E-1
 8.600000000000000E9     1.787914626958051E-1   -9.530629476167425E-1
 8.610000000000000E9     6.172507605216186E-2   -9.658310794378674E-1
 8.620000000000000E9    -5.837033354363202E-2   -9.638009858209601E-1
 8.630000000000000E9    -1.796298685328511E-1   -9.466561523706595E-1
 8.640000000000000E9    -2.996257441173282E-1   -9.147374986915663E-1
 8.650000000000000E9    -4.156301441455609E-1   -8.682574809113778E-1
 8.660000000000000E9    -5.254066575984939E-1   -8.077211181586829E-1
 8.670000000000000E9    -6.262733491238353E-1   -7.340464906675148E-1
 8.680000000000000E9    -7.160606468860399E-1   -6.483253895774570E-1
 8.690000000000000E9    -7.932978067070474E-1   -5.516098287178707E-1
 8.700000000000000E9    -8.568506766524681E-1   -4.450417982469938E-1
 8.710000000000000E9    -9.057126590276181E-1   -3.304670704195844E-1
 8.720000000000000E9    -9.393200871999817E-1   -2.093620236760224E-1
 8.730000000000000E9    -9.572727611843346E-1   -8.447771201369633E-2
 8.740000000000000E9    -9.596069686377988E-1    4.146698596453173E-2
 8.750000000000000E9    -9.465105679762210E-1    1.660270097035761E-1
 8.760000000000000E9    -9.187996044100095E-1    2.863822658813595E-1
 8.770000000000000E9    -8.770912499130307E-1    4.003806732238300E-1
 8.780000000000000E9    -8.221277204320505E-1    5.066353509966898E-1
 8.790000000000000E9    -7.548162652301329E-1    6.036883572117564E-1
 8.800000000000000E9    -6.761436593185586E-1    6.905474570443147E-1
 8.810000000000000E9    -5.870977483607811E-1    7.665632715290928E-1
 8.820000000000000E9    -4.892654109447941E-1    8.311518960126699E-1
 8.830000000000000E9    -3.841516736514502E-1    8.837681132688971E-1
 8.840000000000000E9    -2.735185521087926E-1    9.237047754004138E-1
 8.850000000000000E9    -1.595452931069236E-1    9.507154682271735E-1
 8.860000000000000E9    -4.422592486652902E-2    9.640113062953706E-1
 8.870000000000000E9     7.073459884294300E-2    9.638412531274073E-1
 8.880000000000000E9     1.834548116415865E-1    9.498719791336765E-1
 8.890000000000000E9     2.933752327846217E-1    9.219630157139779E-1
 8.900000000000000E9     3.992144740654436E-1    8.807446589697661E-1
 8.910000000000000E9     4.999113517842172E-1    8.262754971957847E-1
 8.920000000000000E9     5.946503051867175E-1    7.588167465186959E-1
 8.930000000000000E9     6.824762194576033E-1    6.792232780209519E-1
 8.940000000000000E9     7.613075508300082E-1    5.883841321115771E-1
 8.950000000000000E9     8.294102225322638E-1    4.876665575988542E-1
 8.960000000000000E9     8.852889926470798E-1    3.787936094098846E-1
 8.970000000000000E9     9.269079342831602E-1    2.629952043935858E-1
 8.980000000000000E9     9.530784755427714E-1    1.419419209017033E-1
 8.990000000000000E9     9.628088352449576E-1    1.722948259185788E-2
 9.000000000000000E9     9.550694209802494E-1   -1.097857582774028E-1
 9.010000000000000E9     9.291820167344921E-1   -2.372385371881661E-1
 9.020000000000000E9     8.848058526703207E-1   -3.629830903962605E-1
 9.030000000000000E9     8.219218033970563E-1   -4.845212795381988E-1
 9.040000000000000E9     7.411312708293994E-1   -5.983957894736182E-1
 9.050000000000000E9     6.436688229883971E-1   -7.013216644572805E-1
 9.060000000000000E9     5.315493509086913E-1   -7.896498466425239E-1
 9.070000000000000E9     4.071423766311921E-1   -8.608529173514198E-1
 9.080000000000000E9     2.731140798293869E-1   -9.119435499646584E-1
 9.090000000000000E9     1.328213903203776E-1   -9.416184207549653E-1
 9.100000000000000E9    -1.077991132495541E-2   -9.493230681727560E-1
 9.110000000000000E9    -1.544227073926266E-1   -9.345659017507717E-1
 9.120000000000000E9    -2.947849463792159E-1   -8.981035358306867E-1
 9.130000000000000E9    -4.282385870794930E-1   -8.411484713849426E-1
 9.140000000000000E9    -5.514269662226020E-1   -7.655628264810477E-1
 9.150000000000000E9    -6.610286906360717E-1   -6.739697430261784E-1
 9.160000000000000E9    -7.542203127199212E-1   -5.695016154188870E-1
 9.170000000000000E9    -8.292452887989095E-1   -4.557626103650964E-1
 9.180000000000000E9    -8.854140706189041E-1   -3.356904047535753E-1
 9.190000000000000E9    -9.229102342219002E-1   -2.127895723010706E-1
 9.200000000000000E9    -9.428305903885795E-1   -8.975351732668538E-2
 9.210000000000000E9    -9.466974014860753E-1    3.198893440077752E-2
 9.220000000000000E9    -9.356370774536249E-1    1.507427062185537E-1
 9.230000000000000E9    -9.108328853071573E-1    2.642255370341777E-1
 9.240000000000000E9    -8.739976069686952E-1    3.719549864608352E-1
 9.250000000000000E9    -8.262973284009724E-1    4.722875209226886E-1
 9.260000000000000E9    -7.693272506852691E-1    5.635159908512055E-1
 9.270000000000000E9    -7.048113138715996E-1    6.450448003624399E-1
 9.280000000000000E9    -6.340048720019167E-1    7.164140738611273E-1
 9.290000000000000E9    -5.584535336347957E-1    7.776349692550203E-1
 9.300000000000000E9    -4.794699122836008E-1    8.290564284175321E-1
 9.310000000000000E9    -3.978108821093158E-1    8.714333784392558E-1
 9.320000000000000E9    -3.143973967868709E-1    9.052630651460332E-1
 9.330000000000000E9    -2.298046432933380E-1    9.311376099039569E-1
 9.340000000000000E9    -1.446464100588130E-1    9.493558067101303E-1
 9.350000000000000E9    -5.959104032415759E-2    9.601871747454295E-1
 9.360000000000000E9     2.479102915200927E-2    9.635388372416359E-1
 9.370000000000000E9     1.076953308387772E-1    9.595296819415466E-1
 9.380000000000000E9     1.883437577331972E-1    9.483807294911890E-1
 9.390000000000000E9     2.662150615335003E-1    9.303329191331463E-1
 9.400000000000000E9     3.408814031228039E-1    9.061135669649830E-1
 9.410000000000000E9     4.122042817720088E-1    8.760615327403850E-1
 9.420000000000000E9     4.801837405269986E-1    8.409139688808989E-1
 9.430000000000000E9     5.450134504933503E-1    8.008596395794955E-1
 9.440000000000000E9     6.067033782809187E-1    7.559629260069395E-1
 9.450000000000000E9     6.649458056531515E-1    7.062928335776958E-1
 9.460000000000000E9     7.195891310347056E-1    6.518326536943263E-1
 9.470000000000000E9     7.702731415248418E-1    5.926368376082718E-1
 9.480000000000000E9     8.160752216154968E-1    5.288816806374180E-1
 9.490000000000000E9     8.566089485719137E-1    4.608182682150826E-1
 9.500000000000000E9     8.916300175594373E-1    3.890816772729877E-1
 9.510000000000000E9     9.204898047220996E-1    3.139337305107032E-1
 9.520000000000000E9     9.430950904640085E-1    2.355450868158818E-1
 9.530000000000000E9     9.596107188039477E-1    1.547378515635281E-1
 9.540000000000000E9     9.695681776062737E-1    7.159603121221925E-2
 9.550000000000000E9     9.724976813872066E-1   -1.392662441193872E-2
 9.560000000000000E9     9.677214768794792E-1   -1.015639645136575E-1
 9.570000000000000E9     9.542737222503777E-1   -1.911354749908573E-1
 9.580000000000000E9     9.313846888674029E-1   -2.819904953033175E-1
 9.590000000000000E9     8.979756270709209E-1   -3.730674682766738E-1
 9.600000000000000E9     8.533788513512189E-1   -4.636618426565823E-1
 9.610000000000000E9     7.972233394952174E-1   -5.522206730368412E-1
 9.620000000000000E9     7.290961762523033E-1   -6.369844522489537E-1
 9.630000000000000E9     6.488774697312548E-1   -7.166204828929786E-1
 9.640000000000000E9     5.567835977520257E-1   -7.889279717088935E-1
 9.650000000000000E9     4.525672376038138E-1   -8.521047497597714E-1
 9.660000000000000E9     3.357219640752096E-1   -9.031666149905749E-1
 9.670000000000000E9     2.077610059823350E-1   -9.392339299068185E-1
 9.680000000000000E9     6.980856535496996E-2   -9.566859492070684E-1
 9.690000000000000E9    -7.521517012658703E-2   -9.526522112796789E-1
 9.700000000000000E9    -2.238408512538014E-1   -9.244657240391260E-1
 9.710000000000000E9    -3.711720856551358E-1   -8.707881645708803E-1
 9.720000000000000E9    -5.112046347444866E-1   -7.912378370413048E-1
 9.730000000000000E9    -6.384420640802035E-1   -6.869537938553424E-1
 9.740000000000000E9    -7.474735896049947E-1   -5.605156680201051E-1
 9.750000000000000E9    -8.331260174983812E-1   -4.156277406466712E-1
 9.760000000000000E9    -8.915094124686996E-1   -2.575252705740598E-1
 9.770000000000000E9    -9.203617989629997E-1   -9.189022062921787E-2
 9.780000000000000E9    -9.181318783886482E-1    7.467239632891333E-2
 9.790000000000000E9    -8.868776815289741E-1    2.355403257029173E-1
 9.800000000000000E9    -8.294576005348513E-1    3.846654652594423E-1
 9.810000000000000E9    -7.506069293294728E-1    5.175490870908319E-1
 9.820000000000000E9    -6.557583415193805E-1    6.310978741494451E-1
 9.830000000000000E9    -5.495786637908711E-1    7.246336556673462E-1
 9.840000000000000E9    -4.364377419186374E-1    7.978283752933611E-1
 9.850000000000000E9    -3.198035851012558E-1    8.514349749061273E-1
 9.860000000000000E9    -2.022953883045598E-1    8.863578780058909E-1
 9.870000000000000E9    -8.614893662383537E-2    9.041441407042983E-1
 9.880000000000000E9     2.668917128108958E-2    9.067530303922124E-1
 9.890000000000000E9     1.343567002502060E-1    8.959483499598144E-1
 9.900000000000000E9     2.355968402836128E-1    8.739144414296357E-1
 9.910000000000000E9     3.296414715102767E-1    8.426657227033802E-1
 9.920000000000000E9     4.158353281663383E-1    8.042038032118237E-1
 9.930000000000000E9     4.938354392646940E-1    7.599699325552817E-1
 9.940000000000000E9     5.641131249399567E-1    7.110533484549312E-1
 9.950000000000000E9     6.266378858009736E-1    6.580209075930776E-1
 9.960000000000000E9     6.818036575543120E-1    6.013287573700378E-1
 9.970000000000000E9     7.301483490955898E-1    5.412328361644850E-1
 9.980000000000000E9     7.720493437835599E-1    4.781363684628165E-1
 9.990000000000000E9     8.077477450356634E-1    4.126012805301429E-1
 1.000000000000000E+10   8.379691551005354E-1    3.455328597976480E-1
 1.001000000000000E+10   8.624212458913306E-1    2.775511431287426E-1
 1.002000000000000E+10   8.818954025920780E-1    2.096411125211270E-1
 1.003000000000000E+10   8.965392344203374E-1    1.426021836018197E-1
 1.004000000000000E+10   9.064608327031415E-1    7.657419787093303E-2
 1.005000000000000E+10   9.117118712441455E-1    1.169447128604530E-2
 1.006000000000000E+10   9.121996965767243E-1   -5.229939452502769E-2
 1.007000000000000E+10   9.075587940032666E-1   -1.157373455196450E-1
 1.008000000000000E+10   8.977797569864030E-1   -1.790405886610286E-1
 1.009000000000000E+10   8.827963632714098E-1   -2.424293089647539E-1
 1.010000000000000E+10   8.625941143472120E-1   -3.057363729453858E-1
 1.011000000000000E+10   8.374387879528529E-1   -3.687046752935962E-1
 1.012000000000000E+10   8.080393121691887E-1   -4.304975015279855E-1
 1.013000000000000E+10   7.745632699692003E-1   -4.906817037117939E-1
 1.014000000000000E+10   7.373915959595917E-1   -5.484917434290695E-1
 1.015000000000000E+10   6.968685687058920E-1   -6.032983905769039E-1
 1.016000000000000E+10   6.523827447845872E-1   -6.548616126000799E-1
 1.017000000000000E+10   6.037874038877866E-1   -7.030160521804529E-1
 1.018000000000000E+10   5.502726360349364E-1   -7.473289057125565E-1
 1.019000000000000E+10   4.914901179996500E-1   -7.878161415312438E-1
 1.020000000000000E+10   4.269253471754600E-1   -8.243694612057475E-1
 1.021000000000000E+10   3.565012796923833E-1   -8.566464577283973E-1
 1.022000000000000E+10   2.805454044386543E-1   -8.839723160716606E-1
 1.023000000000000E+10   2.001021999184634E-1   -9.056974513710017E-1
 1.024000000000000E+10   1.160984834060759E-1   -9.212989642419558E-1
 1.025000000000000E+10   2.979294701354051E-2   -9.297367960716973E-1
 1.026000000000000E+10  -5.797233294757347E-2   -9.304417331819391E-1
 1.027000000000000E+10  -1.463493640498386E-1   -9.226455013755396E-1
 1.028000000000000E+10  -2.352830368387970E-1   -9.052207779976229E-1
 1.029000000000000E+10  -3.244767035553814E-1   -8.773155387610372E-1
 1.030000000000000E+10  -4.137496892402617E-1   -8.381580005046081E-1
 1.031000000000000E+10  -5.024080800204521E-1   -7.866535818701808E-1
 1.032000000000000E+10  -5.889731818758411E-1   -7.223100440876628E-1
 1.033000000000000E+10  -6.712936425831763E-1   -6.454504741143572E-1
 1.034000000000000E+10  -7.471430503906883E-1   -5.566928060968912E-1
 1.035000000000000E+10  -8.139144754339674E-1   -4.565238619114795E-1
 1.036000000000000E+10  -8.687197390148858E-1   -3.467587643250614E-1
 1.037000000000000E+10  -9.093788252898275E-1   -2.285705930297762E-1
 1.038000000000000E+10  -9.336409882079340E-1   -1.036176838443920E-1
 1.039000000000000E+10  -9.394857631630174E-1    2.653722452189126E-2
 1.040000000000000E+10  -9.257316774417430E-1    1.595522858136115E-1
 1.041000000000000E+10  -8.916493359700801E-1    2.932739155112087E-1
 1.042000000000000E+10  -8.370014321744449E-1    4.242437682266489E-1
 1.043000000000000E+10  -7.621671006960954E-1    5.485930914365527E-1
 1.044000000000000E+10  -6.689303960522107E-1    6.620755726821929E-1
 1.045000000000000E+10  -5.602081231725579E-1    7.604149848511054E-1
 1.046000000000000E+10  -4.390819660091262E-1    8.407401599379331E-1
 1.047000000000000E+10  -3.094543398077327E-1    9.006971491304353E-1
 1.048000000000000E+10  -1.744611948083998E-1    9.393971541888392E-1
 1.049000000000000E+10  -3.660505954701307E-2    9.567267216112142E-1
 1.050000000000000E+10   1.006245518288315E-1    9.529992134400579E-1
 1.051000000000000E+10   2.347603659083188E-1    9.296719670789829E-1
 1.052000000000000E+10   3.632029090283401E-1    8.881212740138019E-1
 1.053000000000000E+10   4.831688326785696E-1    8.307221971892329E-1
 1.054000000000000E+10   5.919065109733573E-1    7.601304661585958E-1
 1.055000000000000E+10   6.877306347646298E-1    6.788540322002434E-1
 1.056000000000000E+10   7.693316753170764E-1    5.897819562288560E-1
 1.057000000000000E+10   8.364698201285509E-1    4.944619749050090E-1
 1.058000000000000E+10   8.890637301836044E-1    3.951458250354346E-1
 1.059000000000000E+10   9.281316974773243E-1    2.931478777504851E-1
 1.060000000000000E+10   9.543032623321414E-1    1.890947665259776E-1
 1.061000000000000E+10   9.684922773489865E-1    8.400690227828438E-2
 1.062000000000000E+10   9.715001058712129E-1   -2.087736288089184E-2
 1.063000000000000E+10   9.641923322739775E-1   -1.237971245288580E-1
 1.064000000000000E+10   9.475802693693099E-1   -2.237316561070365E-1
 1.065000000000000E+10   9.218131605399400E-1   -3.189203513776443E-1
 1.066000000000000E+10   8.879656058194897E-1   -4.082791442678334E-1
 1.067000000000000E+10   8.468349889208427E-1   -4.906305660329808E-1
 1.068000000000000E+10   7.987706006931529E-1   -5.661508022355206E-1
 1.069000000000000E+10   7.442098293654184E-1   -6.350674636184714E-1
 1.070000000000000E+10   6.835365641448236E-1   -6.976682091470658E-1
 1.071000000000000E+10   6.164702597768049E-1   -7.545105389353602E-1
 1.072000000000000E+10   5.443527802033645E-1   -8.056782883278208E-1
 1.073000000000000E+10   4.672616044900819E-1   -8.509242733813420E-1
 1.074000000000000E+10   3.869028051869920E-1   -8.898203263601487E-1
 1.075000000000000E+10   3.040583016359177E-1   -9.217710237145603E-1
 1.076000000000000E+10   2.199883827102106E-1   -9.464203641991731E-1
 1.077000000000000E+10   1.355660672967138E-1   -9.628875692196048E-1
 1.078000000000000E+10   5.169306538034645E-2   -9.714824807642304E-1
 1.079000000000000E+10  -3.150633045981464E-2   -9.715006413708482E-1
 1.080000000000000E+10  -1.140214930452373E-1   -9.634974128001680E-1
 1.081000000000000E+10  -1.964794294992812E-1   -9.473626401610031E-1
 1.082000000000000E+10  -2.783078170172037E-1   -9.233846695278715E-1
 1.083000000000000E+10  -3.597371964511119E-1   -8.917688432978144E-1
 1.084000000000000E+10  -4.397756219059223E-1   -8.526325538858069E-1
 1.085000000000000E+10  -5.174367708078591E-1   -8.066224963507012E-1
 1.086000000000000E+10  -5.913688071614370E-1   -7.537144453080937E-1
 1.087000000000000E+10  -6.598798593047931E-1   -6.946312072643009E-1
 1.088000000000000E+10  -7.222303534529437E-1   -6.298415571732109E-1
 1.089000000000000E+10  -7.772235174407943E-1   -5.594438565012984E-1
 1.090000000000000E+10  -8.246547068329697E-1   -4.838929120497526E-1
 1.091000000000000E+10  -8.641761137446914E-1   -4.032621555601629E-1
 1.092000000000000E+10  -8.961812780256542E-1   -3.177945260476755E-1
 1.093000000000000E+10  -9.201042453397796E-1   -2.273225410890974E-1
 1.094000000000000E+10  -9.359321001038783E-1   -1.327699912785894E-1
 1.095000000000000E+10  -9.427545739403872E-1   -3.500881909247233E-2
 1.096000000000000E+10  -9.402300524564113E-1    6.442869495093856E-2
 1.097000000000000E+10  -9.276102955221951E-1    1.638357847175443E-1
 1.098000000000000E+10  -9.047293781229530E-1    2.613485027353787E-1
 1.099000000000000E+10  -8.715703670473578E-1    3.554174625023294E-1
 1.100000000000000E+10  -8.282913392246747E-1    4.447689477020876E-1
 1.101000000000000E+10  -7.754696983583101E-1    5.288031279409997E-1
 1.102000000000000E+10  -7.131482081680118E-1    6.073501408285589E-1
 1.103000000000000E+10  -6.417194083474764E-1    6.798032842377055E-1
 1.104000000000000E+10  -5.617822859522945E-1    7.453289180381920E-1
 1.105000000000000E+10  -4.740330936030825E-1    8.032262209964381E-1
 1.106000000000000E+10  -3.796241158396847E-1    8.520170365235613E-1
 1.107000000000000E+10  -2.799019753968522E-1    8.902539465416361E-1
 1.108000000000000E+10  -1.764068262330216E-1    9.174043608153720E-1
 1.109000000000000E+10  -7.133989507316475E-2    9.322399762666619E-1
 1.110000000000000E+10   3.417098513042823E-2    9.345961315710146E-1
 1.111000000000000E+10   1.382999132989479E-1    9.245961290449070E-1
 1.112000000000000E+10   2.402886435991484E-1    9.030760331829096E-1
 1.113000000000000E+10   3.392842277412231E-1    8.705163790252848E-1
 1.114000000000000E+10   4.345533473769712E-1    8.274237668546871E-1
 1.115000000000000E+10   5.251166587344775E-1    7.742588585970085E-1
 1.116000000000000E+10   6.099556891410168E-1    7.117944079148218E-1
 1.117000000000000E+10   6.877085023104964E-1    6.404533713954131E-1
 1.118000000000000E+10   7.564395533798511E-1    5.613448122831974E-1
 1.119000000000000E+10   8.152753736395092E-1    4.756775312726220E-1
 1.120000000000000E+10   8.636445250868221E-1    3.849179139326750E-1
 1.121000000000000E+10   9.009855201620194E-1    2.900650685371253E-1
 1.122000000000000E+10   9.273740420203846E-1    1.923084332893821E-1
 1.123000000000000E+10   9.431827958056326E-1    9.246385328568164E-2
 1.124000000000000E+10   9.486426917469050E-1   -8.715579242762726E-3
 1.125000000000000E+10   9.436958825198248E-1   -1.100539333488141E-1
 1.126000000000000E+10   9.285372921339683E-1   -2.104780329306327E-1
 1.127000000000000E+10   9.030681147512734E-1   -3.091382564242760E-1
 1.128000000000000E+10   8.677187999480744E-1   -4.041131655166036E-1
 1.129000000000000E+10   8.222429022495698E-1   -4.941453763653820E-1
 1.130000000000000E+10   7.676446773005876E-1   -5.783418015867676E-1
 1.131000000000000E+10   7.042443176106798E-1   -6.556486632787161E-1
 1.132000000000000E+10   6.333964820922063E-1   -7.253366641716326E-1
 1.133000000000000E+10   5.557894367363763E-1   -7.870329187463395E-1
 1.134000000000000E+10   4.721139905967076E-1   -8.405990769622234E-1
 1.135000000000000E+10   3.829163191240235E-1   -8.859887536075366E-1
 1.136000000000000E+10   2.891051830584908E-1   -9.222458132547837E-1
 1.137000000000000E+10   1.911864362939186E-1   -9.488538249393855E-1
 1.138000000000000E+10   9.015154702921008E-2   -9.650052636904358E-1
 1.139000000000000E+10  -1.220339828235823E-2   -9.701678041891731E-1
 1.140000000000000E+10  -1.148078354766271E-1   -9.638150774165508E-1
 1.141000000000000E+10  -2.162945331398438E-1   -9.460440615142578E-1
 1.142000000000000E+10  -3.152930144903612E-1   -9.170034397901021E-1
 1.143000000000000E+10  -4.107319081400698E-1   -8.776516576493741E-1
 1.144000000000000E+10  -5.018760039201673E-1   -8.286571629524863E-1
 1.145000000000000E+10  -5.875645694643568E-1   -7.702987493869238E-1
 1.146000000000000E+10  -6.675859261899045E-1   -7.025746138431097E-1
 1.147000000000000E+10  -7.401898928204064E-1   -6.263504194119247E-1
 1.148000000000000E+10  -8.038126089182880E-1   -5.416622620460302E-1
 1.149000000000000E+10  -8.583102344603036E-1   -4.501821822323215E-1
 1.150000000000000E+10  -9.015115114508738E-1   -3.520633794971414E-1
 1.151000000000000E+10  -9.331747102061931E-1   -2.494770788962852E-1
 1.152000000000000E+10  -9.532867781661514E-1   -1.438951705941736E-1
 1.153000000000000E+10  -9.615904653170753E-1   -3.632921754255360E-2
 1.154000000000000E+10  -9.579530063198185E-1    7.149534373818912E-2
 1.155000000000000E+10  -9.426680803189840E-1    1.784152847939850E-1
 1.156000000000000E+10  -9.159815848234162E-1    2.828950495651940E-1
 1.157000000000000E+10  -8.779017903655574E-1    3.841766189132978E-1
 1.158000000000000E+10  -8.286299382963495E-1    4.807389325242054E-1
 1.159000000000000E+10  -7.682620073578722E-1    5.710718029575901E-1
 1.160000000000000E+10  -6.973601552435281E-1    6.538249632251346E-1
 1.161000000000000E+10  -6.174593885809707E-1    7.276390161349038E-1
 1.162000000000000E+10  -5.295377343175197E-1    7.914211601716588E-1
 1.163000000000000E+10  -4.356535920284579E-1    8.446356911930250E-1
 1.164000000000000E+10  -3.375563065915521E-1    8.869862069181472E-1
 1.165000000000000E+10  -2.365182022472982E-1    9.183390358399283E-1
 1.166000000000000E+10  -1.340250846516590E-1    9.385878659510482E-1
 1.167000000000000E+10  -3.084451008554954E-2    9.475216046559629E-1
 1.168000000000000E+10   7.194169644220386E-2    9.449448397106583E-1
 1.169000000000000E+10   1.733066613844501E-1    9.309633949416486E-1
 1.170000000000000E+10   2.722026679752286E-1    9.054744457117689E-1
 1.171000000000000E+10   3.671342107644182E-1    8.696311977721014E-1
 1.172000000000000E+10   4.572361410104539E-1    8.239724591881528E-1
 1.173000000000000E+10   5.415008067585598E-1    7.696303679385055E-1
 1.174000000000000E+10   6.188904596637593E-1    7.078412045039201E-1
 1.175000000000000E+10   6.888760536181175E-1    6.396532162554892E-1
 1.176000000000000E+10   7.504566704388881E-1    5.663415798484426E-1
 1.177000000000000E+10   8.035666472955805E-1    4.890337375357811E-1
 1.178000000000000E+10   8.479376891070309E-1    4.081057229763390E-1
 1.179000000000000E+10   8.833137656384568E-1    3.240842368613703E-1
 1.180000000000000E+10   9.097370020495280E-1    2.377161600044607E-1
 1.181000000000000E+10   9.271313883134302E-1    1.494163450039090E-1
 1.182000000000000E+10   9.356112416694631E-1    5.983911527689115E-2
 1.183000000000000E+10   9.358833711676563E-1   -2.962698310035022E-2
 1.184000000000000E+10   9.283935208222248E-1   -1.183929285575042E-1
 1.185000000000000E+10   9.133926011414996E-1   -2.052443579132089E-1
 1.186000000000000E+10   8.915561113729296E-1   -2.891373619988896E-1
 1.187000000000000E+10   8.629200449430385E-1   -3.699475327128359E-1
 1.188000000000000E+10   8.274424286501091E-1   -4.467319399794544E-1
 1.189000000000000E+10   7.851701303675264E-1   -5.191927960627011E-1
 1.190000000000000E+10   7.361105650457305E-1   -5.870508552257591E-1
 1.191000000000000E+10   6.806239734721090E-1   -6.496093464641272E-1
 1.192000000000000E+10   6.192730986845829E-1   -7.071330853676987E-1
 1.193000000000000E+10   5.526766388980119E-1   -7.592164703378609E-1
 1.194000000000000E+10   4.819126857302332E-1   -8.056616975487754E-1
 1.195000000000000E+10   4.077098293128832E-1   -8.462200935145067E-1
 1.196000000000000E+10   3.310810803147655E-1   -8.807091256540777E-1
 1.197000000000000E+10   2.525139054035663E-1   -9.087275005588992E-1
 1.198000000000000E+10   1.728274833270982E-1   -9.295417259670800E-1
 1.199000000000000E+10   9.186880293479174E-2   -9.431286899526482E-1
 1.200000000000000E+10   1.004771698478008E-2   -9.490422387183237E-1
 1.201000000000000E+10  -7.267610109447412E-2   -9.466941204563517E-1
 1.202000000000000E+10  -1.564286665059376E-1   -9.364413013105767E-1
 1.203000000000000E+10  -2.403126410813242E-1   -9.179998420955263E-1
 1.204000000000000E+10  -3.237144792253863E-1   -8.913020038850942E-1
 1.205000000000000E+10  -4.057359631447977E-1   -8.569180445705853E-1
 1.206000000000000E+10  -4.856807715888132E-1   -8.151927837588072E-1
 1.207000000000000E+10  -5.618641142307973E-1   -7.667930982144815E-1
 1.208000000000000E+10  -6.335498626758227E-1   -7.116608684301909E-1
 1.209000000000000E+10  -6.998580702196552E-1   -6.499763024350760E-1
 1.210000000000000E+10  -7.598594650751418E-1   -5.816795043477906E-1
 1.211000000000000E+10  -8.128071304211525E-1   -5.066540321242576E-1
 1.212000000000000E+10  -8.583882937447814E-1   -4.252620293859907E-1
 1.213000000000000E+10  -8.960334969899202E-1   -3.374891022311938E-1
 1.214000000000000E+10  -9.250885619472018E-1   -2.446950947683113E-1
 1.215000000000000E+10  -9.453052844794487E-1   -1.471280013638485E-1
 1.216000000000000E+10  -9.560491190611112E-1   -4.656074962702324E-2
 1.217000000000000E+10  -9.567024711135742E-1    5.560353572329561E-2
 1.218000000000000E+10  -9.467048490880307E-1    1.580839156303512E-1
 1.219000000000000E+10  -9.252073732713247E-1    2.594501080953778E-1
 1.220000000000000E+10  -8.919546397169673E-1    3.584056770183336E-1
 1.221000000000000E+10  -8.469210586981090E-1    4.535793617837973E-1
 1.222000000000000E+10  -7.893089568881569E-1    5.440670815068009E-1
 1.223000000000000E+10  -7.203783855204619E-1    6.286612704384896E-1
 1.224000000000000E+10  -6.403819624787410E-1    7.070020934241827E-1
 1.225000000000000E+10  -5.504584689205653E-1    7.765854911058626E-1
 1.226000000000000E+10  -4.521895124881154E-1    8.361942609323202E-1
 1.227000000000000E+10  -3.482577167047771E-1    8.844525850103190E-1
 1.228000000000000E+10  -2.398186315261442E-1    9.202837733966484E-1
 1.229000000000000E+10  -1.285053698230126E-1    9.425818472663987E-1
 1.230000000000000E+10  -1.639976632339303E-2    9.506559987527173E-1
 1.231000000000000E+10   9.570571314642758E-2    9.439673501955116E-1
 1.232000000000000E+10   2.065298411300716E-1    9.225087025829301E-1
 1.233000000000000E+10   3.143087151198887E-1    8.870325141810086E-1
 1.234000000000000E+10   4.184152124432265E-1    8.376288637806482E-1
 1.235000000000000E+10   5.163358988909730E-1    7.757883441735607E-1
 1.236000000000000E+10   6.067992242899759E-1    7.031217349240689E-1
 1.237000000000000E+10   6.873099684585943E-1    6.212602625474940E-1
 1.238000000000000E+10   7.569092241861043E-1    5.324782879391629E-1
 1.239000000000000E+10   8.139816193952020E-1    4.382017027605665E-1
 1.240000000000000E+10   8.582461656491818E-1    3.403477041051757E-1
 1.241000000000000E+10   8.893044935237018E-1    2.399864774914093E-1
 1.242000000000000E+10   9.074187469723174E-1    1.378912694736131E-1
 1.243000000000000E+10   9.130113235269317E-1    3.517424744843280E-2
 1.244000000000000E+10   9.068378633303550E-1   -6.734029332471476E-2
 1.245000000000000E+10   8.897162121997694E-1   -1.681057060717151E-1
 1.246000000000000E+10   8.624251351392652E-1   -2.658830678374454E-1
 1.247000000000000E+10   8.260376853902880E-1   -3.589197779708057E-1
 1.248000000000000E+10   7.814805344796738E-1   -4.458501890334024E-1
 1.249000000000000E+10   7.297489401149837E-1   -5.255691235996756E-1
 1.250000000000000E+10   6.717415559898375E-1   -5.971681230665536E-1
