#  HZ   S   RI   R     50.00 
! Rohde & Schwarz Vector Network Analyzer 
! Rohde-Schwarz,ZNA43-4Port,1332450044101932,2.92
! Created: UTC 6/1/2026, 11:33:40 AM
! freq[Hz]                re:S11                  im:S11
 8.000000000000000E9    -6.844118325967981E-2    2.681393657311564E-1
 8.010000000000000E9    -6.909383241179649E-2    2.933762926016014E-1
 8.020000000000000E9    -6.515062725717409E-2    3.187473955359637E-1
 8.030000000000000E9    -5.650634963026587E-2    3.431453801903008E-1
 8.040000000000000E9    -4.298487543860151E-2    3.657969784397194E-1
 8.050000000000000E9    -2.474762687832109E-2    3.861804902435031E-1
 8.060000000000000E9    -2.071618148774586E-3    4.036849399977506E-1
 8.070000000000000E9     2.452454783151647E-2    4.183394404635505E-1
 8.080000000000000E9     5.428821285051617E-2    4.299081795328958E-1
 8.090000000000000E9     8.646967304197947E-2    4.382219673350028E-1
 8.100000000000000E9     1.203250981098463E-1    4.430711598125791E-1
 8.110000000000000E9     1.547121854025295E-1    4.443957352353633E-1
 8.120000000000000E9     1.890830634138774E-1    4.417599976058576E-1
 8.130000000000000E9     2.228477160095545E-1    4.347954474569807E-1
 8.140000000000000E9     2.556068342166589E-1    4.234719538314697E-1
 8.150000000000000E9     2.871299759809278E-1    4.074221729021311E-1
 8.160000000000000E9     3.171612148535571E-1    3.870392233505760E-1
 8.170000000000000E9     3.455530105734707E-1    3.623713592894560E-1
 8.180000000000000E9     3.720487446048424E-1    3.339959638737514E-1
 8.190000000000000E9     3.963769658850572E-1    3.026019813954202E-1
 8.200000000000000E9     4.178239979910096E-1    2.686622481237190E-1
 8.210000000000000E9     4.361008804852414E-1    2.329160485564089E-1
 8.220000000000000E9     4.503863347326145E-1    1.957133977051616E-1
 8.230000000000000E9     4.602769052868661E-1    1.574682478458113E-1
 8.240000000000000E9     4.651499950237040E-1    1.182227794089489E-1
 8.250000000000000E9     4.650460807875609E-1    7.838846307510436E-2
 8.260000000000000E9     4.596343850444299E-1    3.802590572364898E-2
 8.270000000000000E9     4.491020343044474E-1   -2.573180117692587E-3
 8.280000000000000E9     4.337930578459196E-1   -4.287158098597808E-2
 8.290000000000000E9     4.139722207098083E-1   -8.220704304222498E-2
 8.300000000000000E9     3.902162311052930E-1   -1.196004546032735E-1
 8.310000000000000E9     3.628203874653420E-1   -1.541214622092061E-1
 8.320000000000000E9     3.319065802082779E-1   -1.850226082291498E-1
 8.330000000000000E9     2.970347486418722E-1   -2.118639187307115E-1
 8.340000000000000E9     2.554885813413297E-1   -2.328668232395384E-1
 8.350000000000000E9     2.124442583269189E-1   -2.357821062226624E-1
 8.360000000000000E9     1.803445368645223E-1   -2.408030379111863E-1
 8.370000000000000E9     1.412342044216972E-1   -2.447427730293554E-1
 8.380000000000000E9     9.967899027753986E-2   -2.424784914539690E-1
 8.390000000000000E9     5.813765420475984E-2   -2.344197386902049E-1
 8.400000000000000E9     1.806188366660646E-2   -2.212415850233543E-1
 8.410000000000000E9    -1.913185369911518E-2   -2.033766115488105E-1
 8.420000000000000E9    -5.223677095169998E-2   -1.811124260673734E-1
 8.430000000000000E9    -8.031436657861706E-2   -1.548026225535232E-1
 8.440000000000000E9    -1.026585962095203E-1   -1.248765221412065E-1
 8.450000000000000E9    -1.190191280715255E-1   -9.175746307936648E-2
 8.460000000000000E9    -1.292897435685058E-1   -5.601764516243755E-2
 8.470000000000000E9    -1.339112275439719E-1   -1.851582595624370E-2
 8.480000000000000E9    -1.330298633859834E-1    1.968310944634943E-2
 8.490000000000000E9    -1.268754389394841E-1    5.711686658698701E-2
 8.500000000000000E9    -1.163626894276721E-1    9.265734573210158E-2
 8.510000000000000E9    -1.012871555740486E-1    1.252288594641822E-1
 8.520000000000000E9    -8.209017653300339E-2    1.537240370712052E-1
 8.530000000000000E9    -5.894928195797253E-2    1.774399517909533E-1
 8.540000000000000E9    -3.214259547152348E-2    1.959568543466781E-1
 8.550000000000000E9    -2.181355270231057E-3    2.090682544598598E-1
 8.560000000000000E9     3.044099043494059E-2    2.170557042787033E-1
 8.570000000000000E9     6.500842891531969E-2    2.199816342924874E-1
 8.580000000000000E9     1.004187464954060E-1    2.182054748367284E-1
 8.590000000000000E9     1.355620605649846E-1    2.119494283850712E-1
 8.600000000000000E9     1.693600829259531E-1    2.013238908447240E-1
 8.610000000000000E9     2.006282098246468E-1    1.864361537972212E-1
 8.620000000000000E9     2.286333277678611E-1    1.673326145707047E-1
 8.630000000000000E9     2.528212880251051E-1    1.439269650673526E-1
 8.640000000000000E9     2.728384846742034E-1    1.162904117414522E-1
 8.650000000000000E9     2.885568456789531E-1    8.487571112299559E-2
 8.660000000000000E9     2.998781461989876E-1    5.012528599906987E-2
 8.670000000000000E9     3.069426444827699E-1    1.273372712188486E-2
 8.680000000000000E9     3.096738478354674E-1   -2.630634213617975E-2
 8.690000000000000E9     3.079458947946029E-1   -6.596342267794014E-2
 8.700000000000000E9     3.015359173538884E-1   -1.051516949655990E-1
 8.710000000000000E9     2.902706158962077E-1   -1.428278519084023E-1
 8.720000000000000E9     2.738795859227194E-1   -1.784015094325186E-1
 8.730000000000000E9     2.520654471213942E-1   -2.112769598642937E-1
 8.740000000000000E9     2.250271729243492E-1   -2.410041366975613E-1
 8.750000000000000E9     1.929110611917130E-1   -2.674400432922873E-1
 8.760000000000000E9     1.562221237350770E-1   -2.903271986744909E-1
 8.770000000000000E9     1.157992987434937E-1   -3.092843501762790E-1
 8.780000000000000E9     7.263438922699390E-2   -3.239665554757531E-1
 8.790000000000000E9     2.775379174851990E-2   -3.340850439397824E-1
 8.800000000000000E9    -1.785894852579883E-2   -3.390226977572103E-1
 8.810000000000000E9    -6.331394728503749E-2   -3.383972441383966E-1
 8.820000000000000E9    -1.079075890577606E-1   -3.316875039160156E-1
 8.830000000000000E9    -1.510738867514192E-1   -3.187468826441577E-1
 8.840000000000000E9    -1.923948672840138E-1   -2.996422437025114E-1
 8.850000000000000E9    -2.315608419406709E-1   -2.746189774958724E-1
 8.860000000000000E9    -2.682365701886979E-1   -2.441956983028010E-1
 8.870000000000000E9    -3.017763286064651E-1   -2.090840721148730E-1
 8.880000000000000E9    -3.316704512202575E-1   -1.701739347218200E-1
 8.890000000000000E9    -3.572648007368865E-1   -1.285992288593765E-1
 8.900000000000000E9    -3.779333912877462E-1   -8.489653631960081E-2
 8.910000000000000E9    -3.930084695468590E-1   -3.997770076743860E-2
 8.920000000000000E9    -4.022116530445957E-1    5.564541474158938E-3
 8.930000000000000E9    -4.051263325204043E-1    5.147464583983657E-2
 8.940000000000000E9    -4.019249978241844E-1    9.742752573067937E-2
 8.950000000000000E9    -3.927795361190866E-1    1.428320406799638E-1
 8.960000000000000E9    -3.781468174436807E-1    1.874061306953962E-1
 8.970000000000000E9    -3.586372763953047E-1    2.306273960725607E-1
 8.980000000000000E9    -3.348548248381030E-1    2.717321763490580E-1
 8.990000000000000E9    -3.073999012696863E-1    3.099571027035303E-1
 9.000000000000000E9    -2.766052166671374E-1    3.445289497899177E-1
 9.010000000000000E9    -2.434211476220163E-1    3.746879971980620E-1
 9.020000000000000E9    -2.078032324106755E-1    3.999123608157911E-1
 9.030000000000000E9    -1.697620507597418E-1    4.200649498263692E-1
 9.040000000000000E9    -1.297185100086328E-1    4.348517017741139E-1
 9.050000000000000E9    -8.796508925323564E-2    4.445216470392571E-1
 9.060000000000000E9    -4.488771774884266E-2    4.491197032066778E-1
 9.070000000000000E9    -9.422326208575882E-4    4.490908478100495E-1
 9.080000000000000E9     4.307695283970995E-2    4.446151886952743E-1
 9.090000000000000E9     8.636793941835433E-2    4.358254792933181E-1
 9.100000000000000E9     1.279273058735712E-1    4.228768603593827E-1
 9.110000000000000E9     1.668876135541461E-1    4.058760525380182E-1
 9.120000000000000E9     2.026349436136622E-1    3.846703385980753E-1
 9.130000000000000E9     2.346173836439331E-1    3.594147621934125E-1
 9.140000000000000E9     2.625528699422466E-1    3.301805307766383E-1
 9.150000000000000E9     2.861470328954724E-1    2.972653374184933E-1
 9.160000000000000E9     3.054718418235183E-1    2.608462015954588E-1
 9.170000000000000E9     3.202893476496963E-1    2.215712731998988E-1
 9.180000000000000E9     3.306140544881970E-1    1.801553446195813E-1
 9.190000000000000E9     3.360325939041949E-1    1.374976234961694E-1
 9.200000000000000E9     3.362432504671058E-1    9.435139008310432E-2
 9.210000000000000E9     3.310360557812480E-1    5.192653411456175E-2
 9.220000000000000E9     3.200043131108132E-1    1.101432214294868E-2
 9.230000000000000E9     3.031477118363841E-1   -2.782932767047518E-2
 9.240000000000000E9     2.804129033434913E-1   -6.352794365773484E-2
 9.250000000000000E9     2.520694883922370E-1   -9.568403387621915E-2
 9.260000000000000E9     2.185553995391286E-1   -1.236430928363720E-1
 9.270000000000000E9     1.805447764099061E-1   -1.469224690592368E-1
 9.280000000000000E9     1.389738716091394E-1   -1.648365301849603E-1
 9.290000000000000E9     9.467781048131013E-2   -1.768657917323725E-1
 9.300000000000000E9     4.884014804369057E-2   -1.823806379694124E-1
 9.310000000000000E9     2.558771289009981E-3   -1.809785258529898E-1
 9.320000000000000E9    -4.304179177995480E-2   -1.723144762030546E-1
 9.330000000000000E9    -8.688127002767466E-2   -1.565366823725197E-1
 9.340000000000000E9    -1.278813125652244E-1   -1.337498993876855E-1
 9.350000000000000E9    -1.653224395157958E-1   -1.044612713659598E-1
 9.360000000000000E9    -1.983210052092014E-1   -6.936123305674037E-2
 9.370000000000000E9    -2.261394901678383E-1   -2.922947024623155E-2
 9.380000000000000E9    -2.482034629681646E-1    1.481998685919019E-2
 9.390000000000000E9    -2.639351495370807E-1    6.181187699115043E-2
 9.400000000000000E9    -2.729099307565016E-1    1.103904375447441E-1
 9.410000000000000E9    -2.751712112549883E-1    1.596325927862921E-1
 9.420000000000000E9    -2.704710840912742E-1    2.083954790538374E-1
 9.430000000000000E9    -2.592945888005181E-1    2.558021797185609E-1
 9.440000000000000E9    -2.419146998393722E-1    3.010355496768852E-1
 9.450000000000000E9    -2.190681111120347E-1    3.434232639616564E-1
 9.460000000000000E9    -1.910678529912617E-1    3.826624185202474E-1
 9.470000000000000E9    -1.586276963926390E-1    4.178971273089703E-1
 9.480000000000000E9    -1.222859200007962E-1    4.488917190633414E-1
 9.490000000000000E9    -8.278124521960016E-2    4.752917985375859E-1
 9.500000000000000E9    -4.050641173600891E-2    4.965758112930507E-1
 9.510000000000000E9     3.616600176006760E-3    5.130693824944812E-1
 9.520000000000000E9     4.892936548526348E-2    5.244244259938712E-1
 9.530000000000000E9     9.493628368232498E-2    5.307058033789093E-1
 9.540000000000000E9     1.410529874150075E-1    5.323064494085927E-1
 9.550000000000000E9     1.867518317059785E-1    5.293955124912596E-1
 9.560000000000000E9     2.314749302322668E-1    5.223273809155197E-1
 9.570000000000000E9     2.749434269076320E-1    5.110802149237930E-1
 9.580000000000000E9     3.168717858082407E-1    4.959089838195411E-1
 9.590000000000000E9     3.567382866437492E-1    4.768182081388137E-1
 9.600000000000000E9     3.944262217633575E-1    4.538762294199575E-1
 9.610000000000000E9     4.296884028985988E-1    4.272435856155262E-1
 9.620000000000000E9     4.622588089950070E-1    3.971749927285418E-1
 9.630000000000000E9     4.919169786457182E-1    3.640214829453788E-1
 9.640000000000000E9     5.185630582627069E-1    3.283437969935439E-1
 9.650000000000000E9     5.420364049575011E-1    2.905103722461271E-1
 9.660000000000000E9     5.620768251213427E-1    2.510444537989829E-1
 9.670000000000000E9     5.787539932987670E-1    2.102066154888072E-1
 9.680000000000000E9     5.917035942607219E-1    1.682627844695640E-1
 9.690000000000000E9     6.006682727318000E-1    1.254720908112833E-1
 9.700000000000000E9     6.053844967796342E-1    8.168581605102432E-2
 9.710000000000000E9     6.057336553861491E-1    3.729909442797438E-2
 9.720000000000000E9     6.016089867222035E-1   -7.401563867724864E-3
 9.730000000000000E9     5.929784766457012E-1   -5.204645171274772E-2
 9.740000000000000E9     5.800052504380077E-1   -9.629782039054735E-2
 9.750000000000000E9     5.627732038058443E-1   -1.396142653131994E-1
 9.760000000000000E9     5.414524744059336E-1   -1.814184951677420E-1
 9.770000000000000E9     5.162503376635166E-1   -2.210614549888747E-1
 9.780000000000000E9     4.871173003087503E-1   -2.581225622945658E-1
 9.790000000000000E9     4.540440601705230E-1   -2.920127965085460E-1
 9.800000000000000E9     4.170095109580646E-1   -3.221495039100011E-1
 9.810000000000000E9     3.760535715580775E-1   -3.481405992103567E-1
 9.820000000000000E9     3.311162472554937E-1   -3.694697313555274E-1
 9.830000000000000E9     2.828831342531858E-1   -3.857218767125002E-1
 9.840000000000000E9     2.319258563940452E-1   -3.964640402195312E-1
 9.850000000000000E9     1.790330769813692E-1   -4.012767833862714E-1
 9.860000000000000E9     1.252234896567198E-1   -4.000010468209251E-1
 9.870000000000000E9     7.179680548377256E-2   -3.921137430011665E-1
 9.880000000000000E9     1.979782083393782E-2   -3.773063811856155E-1
 9.890000000000000E9    -2.973437031716873E-2   -3.554010320466455E-1
 9.900000000000000E9    -7.583561256581968E-2   -3.261814838319772E-1
 9.910000000000000E9    -1.175584014139751E-1   -2.898219202748018E-1
 9.920000000000000E9    -1.539035080950060E-1   -2.467598159778816E-1
 9.930000000000000E9    -1.841808761822370E-1   -1.978911516922197E-1
 9.940000000000000E9    -2.074997213160930E-1   -1.443036740354613E-1
 9.950000000000000E9    -2.233546383959871E-1   -8.742863658996679E-2
 9.960000000000000E9    -2.311275032591870E-1   -2.898705151365212E-2
 9.970000000000000E9    -2.304051539025538E-1    2.934223532313587E-2
 9.980000000000000E9    -2.209789097106876E-1    8.611719349490801E-2
 9.990000000000000E9    -2.029497882714664E-1    1.399262925132146E-1
 1.000000000000000E+10  -1.767002561406703E-1    1.897552419122342E-1
 1.001000000000000E+10  -1.426645725548731E-1    2.346341260760616E-1
 1.002000000000000E+10  -1.019377794273516E-1    2.740119701968705E-1
 1.003000000000000E+10  -5.582401706275419E-2    3.074353806528112E-1
 1.004000000000000E+10  -5.759025491951618E-3    3.344801183022123E-1
 1.005000000000000E+10   4.675153400326520E-2    3.548000555788055E-1
 1.006000000000000E+10   1.001799410966342E-1    3.683915254173066E-1
 1.007000000000000E+10   1.533467486049070E-1    3.749137796607174E-1
 1.008000000000000E+10   2.053781082066530E-1    3.744463683079415E-1
 1.009000000000000E+10   2.556328441784452E-1    3.669300640625361E-1
 1.010000000000000E+10   3.036430489856830E-1    3.525279279561297E-1
 1.011000000000000E+10   3.493164606787196E-1    3.316451219832379E-1
 1.012000000000000E+10   3.923038420027441E-1    3.047807715961616E-1
 1.013000000000000E+10   4.324235605265809E-1    2.728903781276963E-1
 1.014000000000000E+10   4.693026071363357E-1    2.370631223943337E-1
 1.015000000000000E+10   5.026417127206514E-1    1.983439051379663E-1
 1.016000000000000E+10   5.318272965268720E-1    1.573249273472039E-1
 1.017000000000000E+10   5.564492105590606E-1    1.152396494790089E-1
 1.018000000000000E+10   5.761341875840421E-1    7.204176102601269E-2
 1.019000000000000E+10   5.905127960672759E-1    2.808825986396055E-2
 1.020000000000000E+10   5.994475877576229E-1   -1.661063174274635E-2
 1.021000000000000E+10   6.030037957203456E-1   -6.235823336331709E-2
 1.022000000000000E+10   6.013670642499502E-1   -1.091712596348043E-1
 1.023000000000000E+10   5.949002729972720E-1   -1.568984459178690E-1
 1.024000000000000E+10   5.838762032093560E-1   -2.051175911753288E-1
 1.025000000000000E+10   5.690976625356636E-1   -2.529789904748776E-1
 1.026000000000000E+10   5.507054352375560E-1   -2.996906250720226E-1
 1.027000000000000E+10   5.292761210974064E-1   -3.442674794406870E-1
 1.028000000000000E+10   5.048074665315140E-1   -3.859638220894790E-1
 1.029000000000000E+10   4.773101006918184E-1   -4.242987948262648E-1
 1.030000000000000E+10   4.463695774848270E-1   -4.590133338841541E-1
 1.031000000000000E+10   4.116749602987779E-1   -4.902186436299679E-1
 1.032000000000000E+10   3.729061260685195E-1   -5.178723350864169E-1
 1.033000000000000E+10   3.302441822625613E-1   -5.419599103788821E-1
 1.034000000000000E+10   2.840608496984038E-1   -5.628055511915316E-1
 1.035000000000000E+10   2.348086772696803E-1   -5.801731104271981E-1
 1.036000000000000E+10   1.831824400393746E-1   -5.940213934440318E-1
 1.037000000000000E+10   1.302937872297998E-1   -6.038400486390464E-1
 1.038000000000000E+10   7.685183486979461E-2   -6.092599230833666E-1
 1.039000000000000E+10   2.369129540894942E-2   -6.095481240867595E-1
 1.040000000000000E+10  -2.879977444808955E-2   -6.042627714270405E-1
 1.041000000000000E+10  -8.049782286120609E-2   -5.930481476191938E-1
 1.042000000000000E+10  -1.312120449917782E-1   -5.754026729791895E-1
 1.043000000000000E+10  -1.810323541615491E-1   -5.512281839981681E-1
 1.044000000000000E+10  -2.297966900630030E-1   -5.206774367221624E-1
 1.045000000000000E+10  -2.766348739121228E-1   -4.840736769748021E-1
 1.046000000000000E+10  -3.210282278268876E-1   -4.421383528521528E-1
 1.047000000000000E+10  -3.619515664110932E-1   -3.953658723487510E-1
 1.048000000000000E+10  -3.979752039906662E-1   -3.444221832896366E-1
 1.049000000000000E+10  -4.282028434121899E-1   -2.899894268187314E-1
 1.050000000000000E+10  -4.512055929617474E-1   -2.326461999925706E-1
 1.051000000000000E+10  -4.665827796844755E-1   -1.726489431254271E-1
 1.052000000000000E+10  -4.735691974024114E-1   -1.104593210640571E-1
 1.053000000000000E+10  -4.718591886092080E-1   -4.632677842470316E-2
 1.054000000000000E+10  -4.614172703011090E-1    1.897134203609095E-2
 1.055000000000000E+10  -4.424389998072789E-1    8.461830911182767E-2
 1.056000000000000E+10  -4.152238921539308E-1    1.487895129311735E-1
 1.057000000000000E+10  -3.805502956977383E-1    2.100530999262060E-1
 1.058000000000000E+10  -3.388993578472298E-1    2.665483384018073E-1
 1.059000000000000E+10  -2.907166331888180E-1    3.166199131240703E-1
 1.060000000000000E+10  -2.368744171288800E-1    3.589557730270164E-1
 1.061000000000000E+10  -1.778534909206245E-1    3.924494817942314E-1
 1.062000000000000E+10  -1.143712850885014E-1    4.165546760000166E-1
 1.063000000000000E+10  -4.724731831680478E-2    4.310714587667616E-1
 1.064000000000000E+10   2.245123805851719E-2    4.360428809429172E-1
 1.065000000000000E+10   9.341136085740644E-2    4.318653375250073E-1
 1.066000000000000E+10   1.637462687577781E-1    4.188426696310111E-1
 1.067000000000000E+10   2.318055618890733E-1    3.976737650067025E-1
 1.068000000000000E+10   2.957276197611423E-1    3.688416090028696E-1
 1.069000000000000E+10   3.540301335579547E-1    3.329239541296095E-1
 1.070000000000000E+10   4.055753112707245E-1    2.905706054005698E-1
 1.071000000000000E+10   4.495519859784258E-1    2.422097363401182E-1
 1.072000000000000E+10   4.858477213675844E-1    1.884407205916888E-1
 1.073000000000000E+10   5.143400440216496E-1    1.298559806690416E-1
 1.074000000000000E+10   5.352818520010955E-1    6.761689676224172E-2
 1.075000000000000E+10   5.488336723910682E-1    2.428726285484778E-3
 1.076000000000000E+10   5.552896268173753E-1   -6.423268456599134E-2
 1.077000000000000E+10   5.545443360054279E-1   -1.310292377606934E-1
 1.078000000000000E+10   5.470945492169849E-1   -1.960732228819290E-1
 1.079000000000000E+10   5.325662650674026E-1   -2.584647592330859E-1
 1.080000000000000E+10   5.114631792017056E-1   -3.171313992284750E-1
 1.081000000000000E+10   4.835916568719439E-1   -3.716851187774727E-1
 1.082000000000000E+10   4.493608957023796E-1   -4.216158011283609E-1
 1.083000000000000E+10   4.090423237568429E-1   -4.674610529828997E-1
 1.084000000000000E+10   3.628693859947833E-1   -5.087566107740884E-1
 1.085000000000000E+10   3.119485722348747E-1   -5.456995396078252E-1
 1.086000000000000E+10   2.567451717672651E-1   -5.780756224018274E-1
 1.087000000000000E+10   1.983836829297460E-1   -6.053696833778012E-1
 1.088000000000000E+10   1.383703223879738E-1   -6.269085101028372E-1
 1.089000000000000E+10   7.718057337951847E-2   -6.422725776230891E-1
 1.090000000000000E+10   1.577951158264613E-2   -6.508432531263537E-1
 1.091000000000000E+10  -4.552263204029443E-2   -6.523708909896988E-1
 1.092000000000000E+10  -1.061246853604841E-1   -6.468638668854355E-1
 1.093000000000000E+10  -1.658907249936780E-1   -6.342675631243369E-1
 1.094000000000000E+10  -2.250084859242406E-1   -6.149480630131400E-1
 1.095000000000000E+10  -2.830179742684253E-1   -5.891048713796537E-1
 1.096000000000000E+10  -3.395411400045474E-1   -5.569189019460263E-1
 1.097000000000000E+10  -3.939725621763264E-1   -5.191027599124958E-1
 1.098000000000000E+10  -4.449448422868374E-1   -4.759214587763596E-1
 1.099000000000000E+10  -4.913914069995090E-1   -4.280761797335680E-1
 1.100000000000000E+10  -5.324133099271742E-1   -3.762164705137431E-1
 1.101000000000000E+10  -5.672332960283479E-1   -3.208115503500492E-1
 1.102000000000000E+10  -5.953628924904860E-1   -2.620135852831667E-1
 1.103000000000000E+10  -6.166038770064368E-1   -2.000910217124423E-1
 1.104000000000000E+10  -6.308467936365331E-1   -1.354875965643262E-1
 1.105000000000000E+10  -6.381248091315981E-1   -6.859310789734585E-2
 1.106000000000000E+10  -6.384702863488547E-1   -5.947136305912203E-5
 1.107000000000000E+10  -6.318586898921712E-1    6.938206307413734E-2
 1.108000000000000E+10  -6.182155126212449E-1    1.387793560127432E-1
 1.109000000000000E+10  -5.973772413216992E-1    2.068461102511198E-1
 1.110000000000000E+10  -5.693149876146762E-1    2.724685540338873E-1
 1.111000000000000E+10  -5.341808456910714E-1    3.342127031538222E-1
 1.112000000000000E+10  -4.923323539509178E-1    3.911934734923411E-1
 1.113000000000000E+10  -4.441898659774893E-1    4.428633808049277E-1
 1.114000000000000E+10  -3.902772446814529E-1    4.887683735358248E-1
 1.115000000000000E+10  -3.310007504367606E-1    5.286667742208189E-1
 1.116000000000000E+10  -2.673100953353204E-1    5.623030883760975E-1
 1.117000000000000E+10  -1.997218876441259E-1    5.892099320640496E-1
 1.118000000000000E+10  -1.293369433975464E-1    6.087561926074218E-1
 1.119000000000000E+10  -5.718340458464869E-2    6.206539020997701E-1
 1.120000000000000E+10   1.548668314784335E-2    6.245138955023167E-1
 1.121000000000000E+10   8.780715031323974E-2    6.198439535942539E-1
 1.122000000000000E+10   1.586963936270906E-1    6.066518931391786E-1
 1.123000000000000E+10   2.274412668157814E-1    5.853065832931543E-1
 1.124000000000000E+10   2.931666017007137E-1    5.562034578084175E-1
 1.125000000000000E+10   3.554623544182769E-1    5.198382529984489E-1
 1.126000000000000E+10   4.135630301532737E-1    4.767887305222178E-1
 1.127000000000000E+10   4.670803379525080E-1    4.275591183958931E-1
 1.128000000000000E+10   5.152154529361912E-1    3.728582611206609E-1
 1.129000000000000E+10   5.570646199667787E-1    3.132455405005432E-1
 1.130000000000000E+10   5.919594482419069E-1    2.498587289444232E-1
 1.131000000000000E+10   6.192371706455350E-1    1.832241346356718E-1
 1.132000000000000E+10   6.384275517511151E-1    1.144507668286285E-1
 1.133000000000000E+10   6.496283523278604E-1    4.412792516287112E-2
 1.134000000000000E+10   6.527667040732341E-1   -2.685207305782422E-2
 1.135000000000000E+10   6.480756977546848E-1   -9.784048971202938E-2
 1.136000000000000E+10   6.356754324068774E-1   -1.681514764822001E-1
 1.137000000000000E+10   6.158624728163347E-1   -2.371194038108397E-1
 1.138000000000000E+10   5.888413642014582E-1   -3.039054557126181E-1
 1.139000000000000E+10   5.546111957617799E-1   -3.676124545123816E-1
 1.140000000000000E+10   5.133476282213759E-1   -4.272307839346862E-1
 1.141000000000000E+10   4.655432441746362E-1   -4.819965278175934E-1
 1.142000000000000E+10   4.115450587666023E-1   -5.308368425696860E-1
 1.143000000000000E+10   3.522259168440026E-1   -5.732793414362068E-1
 1.144000000000000E+10   2.883349655522106E-1   -6.089189659880646E-1
 1.145000000000000E+10   2.207523320665868E-1   -6.374348369444156E-1
 1.146000000000000E+10   1.497820726152037E-1   -6.586637169646098E-1
 1.147000000000000E+10   7.663904022707345E-2   -6.723315809670352E-1
 1.148000000000000E+10   1.981007771123644E-3   -6.776679954535115E-1
 1.149000000000000E+10  -7.341300611733270E-2   -6.749283174825635E-1
 1.150000000000000E+10  -1.484935093302986E-1   -6.631225655078886E-1
 1.151000000000000E+10  -2.221744461466368E-1   -6.424699700318146E-1
 1.152000000000000E+10  -2.933569753687714E-1   -6.131679712403217E-1
 1.153000000000000E+10  -3.612400327644096E-1   -5.752968221142631E-1
 1.154000000000000E+10  -4.246302430474014E-1   -5.293950712766651E-1
 1.155000000000000E+10  -4.826509841180854E-1   -4.761284536410394E-1
 1.156000000000000E+10  -5.343611560812990E-1   -4.163564933227814E-1
 1.157000000000000E+10  -5.795617234458297E-1   -3.506704157051881E-1
 1.158000000000000E+10  -6.171888869965391E-1   -2.797948057718814E-1
 1.159000000000000E+10  -6.461753994585655E-1   -2.045841502751330E-1
 1.160000000000000E+10  -6.661179977179933E-1   -1.254248971969818E-1
 1.161000000000000E+10  -6.763710458432892E-1   -4.376545454968217E-2
 1.162000000000000E+10  -6.762104998084262E-1    3.960179057779108E-2
 1.163000000000000E+10  -6.656991461810736E-1    1.228455876248044E-1
 1.164000000000000E+10  -6.452295695579578E-1    2.048009136573027E-1
 1.165000000000000E+10  -6.153654110073475E-1    2.840600521349643E-1
 1.166000000000000E+10  -5.766084067312902E-1    3.589653151022048E-1
 1.167000000000000E+10  -5.296794177787311E-1    4.287322450697921E-1
 1.168000000000000E+10  -4.749530691814021E-1    4.921771381093109E-1
 1.169000000000000E+10  -4.128774620475387E-1    5.483901380082589E-1
 1.170000000000000E+10  -3.441028146690810E-1    5.965026232615964E-1
 1.171000000000000E+10  -2.697176603593472E-1    6.354988076866535E-1
 1.172000000000000E+10  -1.906506730239223E-1    6.651145999621900E-1
 1.173000000000000E+10  -1.081887474783216E-1    6.850370901267746E-1
 1.174000000000000E+10  -2.362045008769743E-2    6.952763252336311E-1
 1.175000000000000E+10   6.145592971001008E-2    6.958462193190321E-1
 1.176000000000000E+10   1.453313005367231E-1    6.870738607524854E-1
 1.177000000000000E+10   2.266859294357735E-1    6.693231638606769E-1
 1.178000000000000E+10   3.044278627511321E-1    6.430450100183618E-1
 1.179000000000000E+10   3.774970755346221E-1    6.084203444122996E-1
 1.180000000000000E+10   4.452557670192842E-1    5.660275558165361E-1
 1.181000000000000E+10   5.070846514096123E-1    5.160984791671056E-1
 1.182000000000000E+10   5.625732804292758E-1    4.592040291924247E-1
 1.183000000000000E+10   6.113140031958115E-1    3.964718620850111E-1
 1.184000000000000E+10   6.531407988211737E-1    3.289333792991148E-1
 1.185000000000000E+10   6.877334417004167E-1    2.578528030680976E-1
 1.186000000000000E+10   7.149086060346078E-1    1.846775905334180E-1
 1.187000000000000E+10   7.347001747106917E-1    1.099205225694940E-1
 1.188000000000000E+10   7.467242437461523E-1    3.468877063784510E-2
 1.189000000000000E+10   7.507491400449016E-1   -4.033986486941073E-2
 1.190000000000000E+10   7.467120738410714E-1   -1.146989147852228E-1
 1.191000000000000E+10   7.345329294416288E-1   -1.877943585956235E-1
 1.192000000000000E+10   7.146105687025135E-1   -2.591747252242076E-1
 1.193000000000000E+10   6.872979552895855E-1   -3.284195053902461E-1
 1.194000000000000E+10   6.532626272515032E-1   -3.949164293791304E-1
 1.195000000000000E+10   6.132990958306598E-1   -4.581328245592957E-1
 1.196000000000000E+10   5.682159178486236E-1   -5.173246384471942E-1
 1.197000000000000E+10   5.187937892994198E-1   -5.719628846667327E-1
 1.198000000000000E+10   4.653834736577171E-1   -6.209674068330144E-1
 1.199000000000000E+10   4.083966217701073E-1   -6.642499975718222E-1
 1.200000000000000E+10   3.481860685433575E-1   -7.012755139566859E-1
 1.201000000000000E+10   2.842478727857396E-1   -7.314862280224030E-1
 1.202000000000000E+10   2.170785932598349E-1   -7.552614906984917E-1
 1.203000000000000E+10   1.468241151313586E-1   -7.720421325398004E-1
 1.204000000000000E+10   7.390660242633348E-2   -7.819899838861776E-1
 1.205000000000000E+10  -9.843690802770232E-4   -7.851698796429836E-1
 1.206000000000000E+10  -7.694586737638419E-2   -7.818817964929831E-1
 1.207000000000000E+10  -1.525692800023588E-1   -7.719753158004851E-1
 1.208000000000000E+10  -2.270150772075448E-1   -7.554006876772456E-1
 1.209000000000000E+10  -2.992655979236803E-1   -7.321789913493902E-1
 1.210000000000000E+10  -3.685376414253451E-1   -7.020810961626899E-1
 1.211000000000000E+10  -4.343002257116197E-1   -6.646347671616055E-1
 1.212000000000000E+10  -4.961553945232159E-1   -6.199022854347144E-1
 1.213000000000000E+10  -5.537440811720579E-1   -5.677102231796438E-1
 1.214000000000000E+10  -6.063764266252825E-1   -5.085908747868166E-1
 1.215000000000000E+10  -6.540488846631815E-1   -4.428019610221196E-1
 1.216000000000000E+10  -6.958475779476158E-1   -3.713643710900726E-1
 1.217000000000000E+10  -7.310252795838402E-1   -2.952149809362837E-1
 1.218000000000000E+10  -7.587491529357313E-1   -2.152799805115234E-1
 1.219000000000000E+10  -7.779338792673723E-1   -1.325085416973456E-1
 1.220000000000000E+10  -7.878362718237335E-1   -4.774366237139779E-2
 1.221000000000000E+10  -7.876957156880323E-1    3.792469973210413E-2
 1.222000000000000E+10  -7.766656897630347E-1    1.242098236937055E-1
 1.223000000000000E+10  -7.548665492042528E-1    2.101087586844499E-1
 1.224000000000000E+10  -7.224006750409000E-1    2.952438927505022E-1
 1.225000000000000E+10  -6.791103827065484E-1    3.778684145345142E-1
 1.226000000000000E+10  -6.256417963342644E-1    4.568082454173829E-1
 1.227000000000000E+10  -5.633005764749011E-1    5.298361615925907E-1
 1.228000000000000E+10  -4.929050867624179E-1    5.956812074729738E-1
 1.229000000000000E+10  -4.151963946982560E-1    6.526841363522837E-1
 1.230000000000000E+10  -3.315833279547465E-1    6.993329575127328E-1
 1.231000000000000E+10  -2.424475168603861E-1    7.342378481651344E-1
 1.232000000000000E+10  -1.488112556922115E-1    7.568519389039667E-1
 1.233000000000000E+10  -5.216160948858137E-2    7.667138510538150E-1
 1.234000000000000E+10   4.704540504328227E-2    7.635208441783780E-1
 1.235000000000000E+10   1.465698529583577E-1    7.473319420676227E-1
 1.236000000000000E+10   2.447552721431087E-1    7.189226472212104E-1
 1.237000000000000E+10   3.389947246634578E-1    6.784779522984596E-1
 1.238000000000000E+10   4.271853456427418E-1    6.277376346478254E-1
 1.239000000000000E+10   5.072119041278119E-1    5.670019364850886E-1
 1.240000000000000E+10   5.775245212079919E-1    4.982058845381966E-1
 1.241000000000000E+10   6.368563767843998E-1    4.221097343799723E-1
 1.242000000000000E+10   6.847174451649065E-1    3.394876289347553E-1
 1.243000000000000E+10   7.206920269948743E-1    2.516024885011263E-1
 1.244000000000000E+10   7.451528048733665E-1    1.597208244734230E-1
 1.245000000000000E+10   7.582414011859370E-1    6.536113630652624E-2
 1.246000000000000E+10   7.602122994900832E-1   -2.990509629541429E-2
 1.247000000000000E+10   7.516994415534149E-1   -1.240058204387837E-1
 1.248000000000000E+10   7.332907123658902E-1   -2.150869702106482E-1
 1.249000000000000E+10   7.054387979596470E-1   -3.016136370658120E-1
 1.250000000000000E+10   6.689079283015724E-1   -3.819653371799751E-1
