#  HZ   S   RI   R     50.00 
! Rohde & Schwarz Vector Network Analyzer 
! Rohde-Schwarz,ZNA43-4Port,1332450044101932,2.92
! Created: UTC 6/1/2026, 11:33:56 AM
! freq[Hz]                re:S11                  im:S11
 8.000000000000000E9     3.823192060314251E-1    3.647434794141866E-1
 8.010000000000000E9     4.003093789157413E-1    3.220354651921580E-1
 8.020000000000000E9     4.128169570093300E-1    2.760911029350856E-1
 8.030000000000000E9     4.194874977152552E-1    2.272674605759742E-1
 8.040000000000000E9     4.199657184728263E-1    1.761116696976539E-1
 8.050000000000000E9     4.138975630276900E-1    1.238621634698967E-1
 8.060000000000000E9     4.008313341288212E-1    7.165069182161364E-2
 8.070000000000000E9     3.806251575599175E-1    2.095718734068082E-2
 8.080000000000000E9     3.528885742990039E-1   -2.645075407060722E-2
 8.090000000000000E9     3.176201534655515E-1   -6.905717357544197E-2
 8.100000000000000E9     2.747690336507300E-1   -1.053906328793678E-1
 8.110000000000000E9     2.247840204651577E-1   -1.339065271858505E-1
 8.120000000000000E9     1.686390000096495E-1   -1.532827623047142E-1
 8.130000000000000E9     1.078527183143822E-1   -1.623668351983491E-1
 8.140000000000000E9     4.445754115062442E-2   -1.602986150398007E-1
 8.150000000000000E9    -1.920031071393181E-2   -1.467523355789698E-1
 8.160000000000000E9    -7.982646307759839E-2   -1.212524313406402E-1
 8.170000000000000E9    -1.348955928575607E-1   -8.450113306766020E-2
 8.180000000000000E9    -1.815304618621869E-1   -3.696458369182044E-2
 8.190000000000000E9    -2.174620867335727E-1    1.991836234682299E-2
 8.200000000000000E9    -2.408989439553364E-1    8.420926487001974E-2
 8.210000000000000E9    -2.509160249843260E-1    1.535132493141977E-1
 8.220000000000000E9    -2.471877859936316E-1    2.251537892766554E-1
 8.230000000000000E9    -2.300392848462250E-1    2.962282515781604E-1
 8.240000000000000E9    -2.002527783567385E-1    3.639514575563101E-1
 8.250000000000000E9    -1.593632243161188E-1    4.255899591164161E-1
 8.260000000000000E9    -1.086018629280472E-1    4.789401714491894E-1
 8.270000000000000E9    -4.960247597914150E-2    5.223142734885315E-1
 8.280000000000000E9     1.623457358568673E-2    5.545832906240088E-1
 8.290000000000000E9     8.757096009496929E-2    5.750405268717060E-1
 8.300000000000000E9     1.627922522237842E-1    5.833787318890442E-1
 8.310000000000000E9     2.399562461241580E-1    5.798810692465038E-1
 8.320000000000000E9     3.172762861030115E-1    5.649710291721721E-1
 8.330000000000000E9     3.928816377706228E-1    5.394404601629221E-1
 8.340000000000000E9     4.650546794144115E-1    5.040158454004607E-1
 8.350000000000000E9     5.319942591194858E-1    4.593149002561140E-1
 8.360000000000000E9     5.924425972666247E-1    4.061163417365592E-1
 8.370000000000000E9     6.453043661064142E-1    3.447205334450676E-1
 8.380000000000000E9     6.894114610985993E-1    2.757243515861691E-1
 8.390000000000000E9     7.241272710809036E-1    1.996526007779200E-1
 8.400000000000000E9     7.488041384575337E-1    1.171823330143647E-1
 8.410000000000000E9     7.630433434909517E-1    2.941777044725239E-2
 8.420000000000000E9     7.662018105640586E-1   -6.213181317484204E-2
 8.430000000000000E9     7.578091761427330E-1   -1.557292231276436E-1
 8.440000000000000E9     7.374980032261859E-1   -2.493762302100823E-1
 8.450000000000000E9     7.050558900254604E-1   -3.408674323376039E-1
 8.460000000000000E9     6.599165536970476E-1   -4.281579880806441E-1
 8.470000000000000E9     6.019324609827149E-1   -5.097230507595895E-1
 8.480000000000000E9     5.311274930683451E-1   -5.835923270765699E-1
 8.490000000000000E9     4.476335461808325E-1   -6.482021713007688E-1
 8.500000000000000E9     3.522458980880060E-1   -7.018098046747240E-1
 8.510000000000000E9     2.462525396360519E-1   -7.418262575487359E-1
 8.520000000000000E9     1.318765927029634E-1   -7.669450174995865E-1
 8.530000000000000E9     1.262322633129254E-2   -7.752585715580793E-1
 8.540000000000000E9    -1.082250264150352E-1   -7.656464898324046E-1
 8.550000000000000E9    -2.270270200326834E-1   -7.372249762898786E-1
 8.560000000000000E9    -3.399556148631678E-1   -6.897257570260489E-1
 8.570000000000000E9    -4.436796350328040E-1   -6.238125682416933E-1
 8.580000000000000E9    -5.352536574153529E-1   -5.404531763412402E-1
 8.590000000000000E9    -6.118978518219400E-1   -4.417137314746565E-1
 8.600000000000000E9    -6.713968899468590E-1   -3.302096989962263E-1
 8.610000000000000E9    -7.120510507983496E-1   -2.095582899518446E-1
 8.620000000000000E9    -7.327570155664594E-1   -8.403555466077101E-2
 8.630000000000000E9    -7.331104467886479E-1    4.202691510068688E-2
 8.640000000000000E9    -7.134150819996533E-1    1.644745973985807E-1
 8.650000000000000E9    -6.746378396119229E-1    2.796221586944997E-1
 8.660000000000000E9    -6.183622695288340E-1    3.841734309681274E-1
 8.670000000000000E9    -5.465651885309064E-1    4.759208365943955E-1
 8.680000000000000E9    -4.614998100724941E-1    5.530855544026906E-1
 8.690000000000000E9    -3.659911503328498E-1    6.148109311105445E-1
 8.700000000000000E9    -2.627801325931980E-1    6.602115471100384E-1
 8.710000000000000E9    -1.548688034536006E-1    6.891897296468015E-1
 8.720000000000000E9    -4.584503695905829E-2    7.017033475244151E-1
 8.730000000000000E9     6.130086181320255E-2    6.982032904263054E-1
 8.740000000000000E9     1.640786638419214E-1    6.794322096944593E-1
 8.750000000000000E9     2.604103820838876E-1    6.461028877372446E-1
 8.760000000000000E9     3.484940675262498E-1    5.989439547645187E-1
 8.770000000000000E9     4.271392265736756E-1    5.394834960325685E-1
 8.780000000000000E9     4.954253865115536E-1    4.686712828674335E-1
 8.790000000000000E9     5.523945928988782E-1    3.881733582631536E-1
 8.800000000000000E9     5.973124269018523E-1    3.002744056788119E-1
 8.810000000000000E9     6.293563183594502E-1    2.069832842373294E-1
 8.820000000000000E9     6.481811384231798E-1    1.107774670772622E-1
 8.830000000000000E9     6.533054923270267E-1    1.386963469799592E-2
 8.840000000000000E9     6.444503152244759E-1   -8.128647911544862E-2
 8.850000000000000E9     6.217244610615817E-1   -1.729500373550233E-1
 8.860000000000000E9     5.854945764175874E-1   -2.592961752689019E-1
 8.870000000000000E9     5.363600983510644E-1   -3.390667827883463E-1
 8.880000000000000E9     4.754903801213659E-1   -4.108983761084824E-1
 8.890000000000000E9     4.041046765747974E-1   -4.736331967837689E-1
 8.900000000000000E9     3.239543191297415E-1   -5.260647928909621E-1
 8.910000000000000E9     2.374898706228844E-1   -5.669306020926024E-1
 8.920000000000000E9     1.468364132855774E-1   -5.953595408469422E-1
 8.930000000000000E9     5.419854032834406E-2   -6.105044906329925E-1
 8.940000000000000E9    -3.827435226753166E-2   -6.122309272608842E-1
 8.950000000000000E9    -1.286141035692072E-1   -6.004612813372329E-1
 8.960000000000000E9    -2.153147166220324E-1   -5.754517072052324E-1
 8.970000000000000E9    -2.970662368274625E-1   -5.382346949516856E-1
 8.980000000000000E9    -3.726147521480927E-1   -4.898764401255581E-1
 8.990000000000000E9    -4.408931519113949E-1   -4.318820835257985E-1
 9.000000000000000E9    -5.005478178085138E-1   -3.658879789245508E-1
 9.010000000000000E9    -5.512084852631575E-1   -2.940119269094408E-1
 9.020000000000000E9    -5.918401824868427E-1   -2.178681279541391E-1
 9.030000000000000E9    -6.217248197648533E-1   -1.392026565756649E-1
 9.040000000000000E9    -6.406172568002476E-1   -5.966386109854926E-2
 9.050000000000000E9    -6.487197255440535E-1    1.973851612187337E-2
 9.060000000000000E9    -6.464157914272605E-1    9.786096453284276E-2
 9.070000000000000E9    -6.340928531551705E-1    1.740546339192654E-1
 9.080000000000000E9    -6.128465582385196E-1    2.475671310559019E-1
 9.090000000000000E9    -5.833464022005770E-1    3.177827574581221E-1
 9.100000000000000E9    -5.467208776252053E-1    3.840648888376270E-1
 9.110000000000000E9    -5.039696822108295E-1    4.453592486296014E-1
 9.120000000000000E9    -4.561315948954297E-1    5.008237725517013E-1
 9.130000000000000E9    -4.041027390896959E-1    5.497340681586738E-1
 9.140000000000000E9    -3.487303965688863E-1    5.914630011547446E-1
 9.150000000000000E9    -2.907149556080232E-1    6.257901859408257E-1
 9.160000000000000E9    -2.305628924740660E-1    6.526287379396447E-1
 9.170000000000000E9    -1.686671194685589E-1    6.722168001899362E-1
 9.180000000000000E9    -1.054060022841182E-1    6.848908976926020E-1
 9.190000000000000E9    -4.132133362510459E-2    6.910362994189535E-1
 9.200000000000000E9     2.318439949702741E-2    6.908070809764620E-1
 9.210000000000000E9     8.721411946530372E-2    6.846502495901847E-1
 9.220000000000000E9     1.500903817540209E-1    6.724708256081078E-1
 9.230000000000000E9     2.111083969235281E-1    6.544792036601432E-1
 9.240000000000000E9     2.691760035410806E-1    6.305510517994798E-1
 9.250000000000000E9     3.238680164965445E-1    6.010090520932274E-1
 9.260000000000000E9     3.743325886744105E-1    5.661304476410337E-1
 9.270000000000000E9     4.203198091793408E-1    5.260808652735025E-1
 9.280000000000000E9     4.617958580335101E-1    4.812902340808344E-1
 9.290000000000000E9     4.983116279337977E-1    4.319458576018383E-1
 9.300000000000000E9     5.298715261136793E-1    3.785037170668063E-1
 9.310000000000000E9     5.559017698264200E-1    3.214447225485827E-1
 9.320000000000000E9     5.760174460609403E-1    2.613491728045028E-1
 9.330000000000000E9     5.895546733592082E-1    1.989418461233538E-1
 9.340000000000000E9     5.958974923453492E-1    1.349851175859135E-1
 9.350000000000000E9     5.943601126025225E-1    7.040503708868605E-2
 9.360000000000000E9     5.845594115548373E-1    6.036029451942283E-3
 9.370000000000000E9     5.663847845081027E-1   -5.701129533981995E-2
 9.380000000000000E9     5.397602098222214E-1   -1.179095811859514E-1
 9.390000000000000E9     5.046756095394049E-1   -1.755712740226206E-1
 9.400000000000000E9     4.615311354605557E-1   -2.290402726358674E-1
 9.410000000000000E9     4.106322661361145E-1   -2.769582300281453E-1
 9.420000000000000E9     3.527420560149986E-1   -3.182071279452071E-1
 9.430000000000000E9     2.884335003267218E-1   -3.514342478457670E-1
 9.440000000000000E9     2.190313102266217E-1   -3.751310685089388E-1
 9.450000000000000E9     1.459724800372428E-1   -3.882008740175225E-1
 9.460000000000000E9     7.107367289612523E-2   -3.897591708074366E-1
 9.470000000000000E9    -3.924093972481831E-3   -3.796060823417802E-1
 9.480000000000000E9    -7.677060888071484E-2   -3.576391866408450E-1
 9.490000000000000E9    -1.454483492172731E-1   -3.242968902553282E-1
 9.500000000000000E9    -2.079079592039574E-1   -2.805417524544954E-1
 9.510000000000000E9    -2.627972080816214E-1   -2.272338905555939E-1
 9.520000000000000E9    -3.084588590111558E-1   -1.659779996465989E-1
 9.530000000000000E9    -3.433697674051154E-1   -9.852318646837963E-2
 9.540000000000000E9    -3.669654522218153E-1   -2.665252911592604E-2
 9.550000000000000E9    -3.789094879829629E-1    4.739690029038584E-2
 9.560000000000000E9    -3.794265029364617E-1    1.216692781952017E-1
 9.570000000000000E9    -3.690464696594894E-1    1.941308264464867E-1
 9.580000000000000E9    -3.487769336582164E-1    2.632174052080027E-1
 9.590000000000000E9    -3.196046342439278E-1    3.274855462299553E-1
 9.600000000000000E9    -2.825682739208579E-1    3.857059625252988E-1
 9.610000000000000E9    -2.389666046870495E-1    4.372045963154861E-1
 9.620000000000000E9    -1.897523540843844E-1    4.813948871434692E-1
 9.630000000000000E9    -1.360470692287599E-1    5.178545563664875E-1
 9.640000000000000E9    -7.904095483743971E-2    5.466704372109262E-1
 9.650000000000000E9    -1.975283181106225E-2    5.676476302835690E-1
 9.660000000000000E9     4.030448974087591E-2    5.813501800074303E-1
 9.670000000000000E9     1.004414495480976E-1    5.883257978730974E-1
 9.680000000000000E9     1.595456956523967E-1    5.889572887322928E-1
 9.690000000000000E9     2.170965011291061E-1    5.837761219100730E-1
 9.700000000000000E9     2.725713115097987E-1    5.728916429849473E-1
 9.710000000000000E9     3.254623930460077E-1    5.566290229135795E-1
 9.720000000000000E9     3.756510877252165E-1    5.353503491416193E-1
 9.730000000000000E9     4.226624316097068E-1    5.091307483135470E-1
 9.740000000000000E9     4.663251127201808E-1    4.785841520018583E-1
 9.750000000000000E9     5.066169246713459E-1    4.441483559135975E-1
 9.760000000000000E9     5.433481865490226E-1    4.062944789205108E-1
 9.770000000000000E9     5.764349353234439E-1    3.657896083741475E-1
 9.780000000000000E9     6.058102576784702E-1    3.232649644912430E-1
 9.790000000000000E9     6.312743159697393E-1    2.790441254164400E-1
 9.800000000000000E9     6.527100727761797E-1    2.336755880363626E-1
 9.810000000000000E9     6.700366475950694E-1    1.870724518326363E-1
 9.820000000000000E9     6.829773389784313E-1    1.394997041349158E-1
 9.830000000000000E9     6.914725687160217E-1    9.073964163555590E-2
 9.840000000000000E9     6.954246400066152E-1    4.100862096343186E-2
 9.850000000000000E9     6.947039598399303E-1   -9.521084832119870E-3
 9.860000000000000E9     6.895507806018061E-1   -6.054408158583578E-2
 9.870000000000000E9     6.801110607557010E-1   -1.114032058330413E-1
 9.880000000000000E9     6.666226902793634E-1   -1.616082878787614E-1
 9.890000000000000E9     6.493376037030820E-1   -2.105762671482576E-1
 9.900000000000000E9     6.282020214990289E-1   -2.578042628390318E-1
 9.910000000000000E9     6.031511862488957E-1   -3.028891576816763E-1
 9.920000000000000E9     5.739250462830940E-1   -3.455536246699573E-1
 9.930000000000000E9     5.402415134525076E-1   -3.855083995200370E-1
 9.940000000000000E9     5.019203236892538E-1   -4.223965789333210E-1
 9.950000000000000E9     4.588883460278799E-1   -4.560424638905846E-1
 9.960000000000000E9     4.111976594538029E-1   -4.861616311368723E-1
 9.970000000000000E9     3.594603384371501E-1   -5.122001093604838E-1
 9.980000000000000E9     3.041708653402256E-1   -5.337329772731468E-1
 9.990000000000000E9     2.463381451404220E-1   -5.500956125797368E-1
 1.000000000000000E+10   1.868535101866951E-1   -5.604946375971899E-1
 1.001000000000000E+10   1.258609530165548E-1   -5.650158989713240E-1
 1.002000000000000E+10   6.445592589878882E-2   -5.620231579134433E-1
 1.003000000000000E+10   2.998738135556024E-3   -5.511572268662907E-1
 1.004000000000000E+10  -5.803715976057756E-2   -5.318468912865915E-1
 1.005000000000000E+10  -1.179228077258741E-1   -5.037224721688330E-1
 1.006000000000000E+10  -1.756688938982720E-1   -4.666135725759710E-1
 1.007000000000000E+10  -2.299682055977134E-1   -4.211586595603405E-1
 1.008000000000000E+10  -2.794597455089801E-1   -3.677159455203461E-1
 1.009000000000000E+10  -3.225503282066788E-1   -3.075296137202091E-1
 1.010000000000000E+10  -3.575510073268639E-1   -2.419674132739283E-1
 1.011000000000000E+10  -3.829000371853696E-1   -1.722826349239769E-1
 1.012000000000000E+10  -3.975814349335292E-1   -9.969921550521803E-2
 1.013000000000000E+10  -4.004924120804004E-1   -2.553112251574374E-2
 1.014000000000000E+10  -3.911588032499223E-1    4.870916006304385E-2
 1.015000000000000E+10  -3.697452107800150E-1    1.216846037932326E-1
 1.016000000000000E+10  -3.367042809271079E-1    1.917305122137831E-1
 1.017000000000000E+10  -2.933325620004093E-1    2.569423448694870E-1
 1.018000000000000E+10  -2.411548784069025E-1    3.156653581046594E-1
 1.019000000000000E+10  -1.820659420968139E-1    3.662576073933579E-1
 1.020000000000000E+10  -1.181600402788814E-1    4.072485683696749E-1
 1.021000000000000E+10  -5.088339638310101E-2    4.377343468393868E-1
 1.022000000000000E+10   1.812938799164167E-2    4.572901966342396E-1
 1.023000000000000E+10   8.778661000994027E-2    4.658366521893427E-1
 1.024000000000000E+10   1.570896795612695E-1    4.634905309790822E-1
 1.025000000000000E+10   2.253302125572391E-1    4.510561891359996E-1
 1.026000000000000E+10   2.913001603411101E-1    4.293724078403827E-1
 1.027000000000000E+10   3.541656521263418E-1    3.998179049523365E-1
 1.028000000000000E+10   4.126723244639750E-1    3.636381762268388E-1
 1.029000000000000E+10   4.657614016884997E-1    3.223470219542980E-1
 1.030000000000000E+10   5.125359886042720E-1    2.769986676926194E-1
 1.031000000000000E+10   5.523028424751182E-1    2.284548149409433E-1
 1.032000000000000E+10   5.849516838610196E-1    1.774216855063125E-1
 1.033000000000000E+10   6.101202721109554E-1    1.238958469941061E-1
 1.034000000000000E+10   6.282106999290069E-1    6.840560520679907E-2
 1.035000000000000E+10   6.394611850825735E-1    1.120858804178701E-2
 1.036000000000000E+10   6.444721762074710E-1   -4.751635994825146E-2
 1.037000000000000E+10   6.436918954575611E-1   -1.070073938314651E-1
 1.038000000000000E+10   6.377234722356397E-1   -1.663554234629083E-1
 1.039000000000000E+10   6.269620186708987E-1   -2.243746169505427E-1
 1.040000000000000E+10   6.116704302618500E-1   -2.804109648526545E-1
 1.041000000000000E+10   5.920776329028948E-1   -3.334203694172798E-1
 1.042000000000000E+10   5.678605159306278E-1   -3.828872032693415E-1
 1.043000000000000E+10   5.392405278639720E-1   -4.286139706234978E-1
 1.044000000000000E+10   5.057009901064385E-1   -4.707933775702251E-1
 1.045000000000000E+10   4.675815370395836E-1   -5.093909777478783E-1
 1.046000000000000E+10   4.246346371634141E-1   -5.447721012000388E-1
 1.047000000000000E+10   3.776835319965066E-1   -5.768199616588995E-1
 1.048000000000000E+10   3.273625230119169E-1   -6.056016047027625E-1
 1.049000000000000E+10   2.743531919843702E-1   -6.306675274418424E-1
 1.050000000000000E+10   2.198407734589215E-1   -6.515660595160663E-1
 1.051000000000000E+10   1.642949752485009E-1   -6.679049021809926E-1
 1.052000000000000E+10   1.084353655153169E-1   -6.789248600260407E-1
 1.053000000000000E+10   5.244073180676752E-2   -6.843569503983988E-1
 1.054000000000000E+10  -3.631661560099862E-3   -6.836951901090580E-1
 1.055000000000000E+10  -6.006366612306980E-2   -6.767159431522963E-1
 1.056000000000000E+10  -1.168917775688276E-1   -6.634079173494017E-1
 1.057000000000000E+10  -1.739295860977524E-1   -6.439756140737537E-1
 1.058000000000000E+10  -2.307292375564917E-1   -6.186491453874090E-1
 1.059000000000000E+10  -2.863985959056286E-1   -5.878014154503303E-1
 1.060000000000000E+10  -3.399202214029612E-1   -5.519021776004245E-1
 1.061000000000000E+10  -3.902654567354428E-1   -5.112574068064114E-1
 1.062000000000000E+10  -4.361795779151222E-1   -4.662816417894370E-1
 1.063000000000000E+10  -4.767112759964015E-1   -4.168036559670898E-1
 1.064000000000000E+10  -5.109887509216601E-1   -3.630100389737201E-1
 1.065000000000000E+10  -5.386621364122151E-1   -3.047229346627853E-1
 1.066000000000000E+10  -5.595973700546988E-1   -2.422317420077769E-1
 1.067000000000000E+10  -5.734016757049941E-1   -1.757566749651827E-1
 1.068000000000000E+10  -5.801270640027792E-1   -1.057880353175693E-1
 1.069000000000000E+10  -5.794397765342931E-1   -3.355289064392240E-2
 1.070000000000000E+10  -5.712246063759413E-1    3.955379837634444E-2
 1.071000000000000E+10  -5.553640411733222E-1    1.116389813115156E-1
 1.072000000000000E+10  -5.314935942541640E-1    1.811196111538966E-1
 1.073000000000000E+10  -4.998140121579558E-1    2.464120873454384E-1
 1.074000000000000E+10  -4.599592740617849E-1    3.064739860040379E-1
 1.075000000000000E+10  -4.123538045358838E-1    3.604643615001004E-1
 1.076000000000000E+10  -3.571414829830937E-1    4.076856698501168E-1
 1.077000000000000E+10  -2.950900217322743E-1    4.479061592980953E-1
 1.078000000000000E+10  -2.269717382283813E-1    4.806848034720529E-1
 1.079000000000000E+10  -1.541996113924745E-1    5.056028401919460E-1
 1.080000000000000E+10  -7.855414769790764E-2    5.221559547799655E-1
 1.081000000000000E+10  -1.988020723900068E-3    5.299333285679768E-1
 1.082000000000000E+10   7.360353264743466E-2    5.290848851710868E-1
 1.083000000000000E+10   1.464808473977768E-1    5.202046612076632E-1
 1.084000000000000E+10   2.189588980391277E-1    5.051795419017301E-1
 1.085000000000000E+10   2.942426388678785E-1    4.754938604305638E-1
 1.086000000000000E+10   3.582123499024266E-1    4.303454811114258E-1
 1.087000000000000E+10   4.132554032058647E-1    3.796167549361397E-1
 1.088000000000000E+10   4.619384323533488E-1    3.232926456021522E-1
 1.089000000000000E+10   5.045970011766631E-1    2.616129052837498E-1
 1.090000000000000E+10   5.401442645159973E-1    1.954674497649052E-1
 1.091000000000000E+10   5.680883530978682E-1    1.262040211292242E-1
 1.092000000000000E+10   5.875845989202478E-1    5.540912684142020E-2
 1.093000000000000E+10   5.983106673270654E-1   -1.549634041115796E-2
 1.094000000000000E+10   6.000542165001125E-1   -8.583657866804766E-2
 1.095000000000000E+10   5.929771571103696E-1   -1.545985235967079E-1
 1.096000000000000E+10   5.770792218013525E-1   -2.214780760980435E-1
 1.097000000000000E+10   5.531791817116744E-1   -2.863219828400184E-1
 1.098000000000000E+10   5.214408207443084E-1   -3.482895880172744E-1
 1.099000000000000E+10   4.827821285299080E-1   -4.070744906853262E-1
 1.100000000000000E+10   4.378938699013066E-1   -4.618348821575655E-1
 1.101000000000000E+10   3.877693705511643E-1   -5.115153880125363E-1
 1.102000000000000E+10   3.328850108198458E-1   -5.551187150217191E-1
 1.103000000000000E+10   2.744517205157920E-1   -5.918619891441099E-1
 1.104000000000000E+10   2.128748336537854E-1   -6.212337313414474E-1
 1.105000000000000E+10   1.491380584525583E-1   -6.427851322158675E-1
 1.106000000000000E+10   8.361524972581649E-2   -6.568413534419373E-1
 1.107000000000000E+10   1.669805401554954E-2   -6.632656338809551E-1
 1.108000000000000E+10  -5.111249967842754E-2   -6.623438822824270E-1
 1.109000000000000E+10  -1.194896202132841E-1   -6.541895759274030E-1
 1.110000000000000E+10  -1.874482688071810E-1   -6.391693876442095E-1
 1.111000000000000E+10  -2.541737850632426E-1   -6.171560907116643E-1
 1.112000000000000E+10  -3.182941828651675E-1   -5.881722078512737E-1
 1.113000000000000E+10  -3.788200997276751E-1   -5.525297943676308E-1
 1.114000000000000E+10  -4.348682526255515E-1   -5.104246709372168E-1
 1.115000000000000E+10  -4.853839024551206E-1   -4.624096126537610E-1
 1.116000000000000E+10  -5.303096360487307E-1   -4.088179365382092E-1
 1.117000000000000E+10  -5.689525728965453E-1   -3.501600519114557E-1
 1.118000000000000E+10  -6.015862717180117E-1   -2.871941514493802E-1
 1.119000000000000E+10  -6.276530777602156E-1   -2.205172645046395E-1
 1.120000000000000E+10  -6.469704425362653E-1   -1.508446141235843E-1
 1.121000000000000E+10  -6.590667168000878E-1   -7.904304062102296E-2
 1.122000000000000E+10  -6.635399486612847E-1   -6.139124601174702E-3
 1.123000000000000E+10  -6.599159358601353E-1    6.690809914880215E-2
 1.124000000000000E+10  -6.479978387087735E-1    1.388695454223400E-1
 1.125000000000000E+10  -6.279532824813017E-1    2.088625345725042E-1
 1.126000000000000E+10  -6.000417097623918E-1    2.759797125288860E-1
 1.127000000000000E+10  -5.646876410083511E-1    3.394981838994275E-1
 1.128000000000000E+10  -5.222650126539151E-1    3.991258723381998E-1
 1.129000000000000E+10  -4.734353083452154E-1    4.543694756189515E-1
 1.130000000000000E+10  -4.186506983424531E-1    5.043389291213426E-1
 1.131000000000000E+10  -3.589649439372896E-1    5.484663042054724E-1
 1.132000000000000E+10  -2.947592797614752E-1    5.859754820238611E-1
 1.133000000000000E+10  -2.269981426518312E-1    6.162279851082784E-1
 1.134000000000000E+10  -1.566393144188354E-1    6.386196170158849E-1
 1.135000000000000E+10  -8.462021368800171E-2    6.528695793973508E-1
 1.136000000000000E+10  -1.170702450572015E-2    6.587710669216728E-1
 1.137000000000000E+10   6.110364623768990E-2    6.567312329485944E-1
 1.138000000000000E+10   1.329507630086156E-1    6.470429873614313E-1
 1.139000000000000E+10   2.033386842159933E-1    6.298053446993336E-1
 1.140000000000000E+10   2.715453090782378E-1    6.055017670560066E-1
 1.141000000000000E+10   3.369115344023558E-1    5.744244348386380E-1
 1.142000000000000E+10   3.984727689881247E-1    5.366572852552325E-1
 1.143000000000000E+10   4.554124805102006E-1    4.925486514485727E-1
 1.144000000000000E+10   5.069879313866311E-1    4.426240565440671E-1
 1.145000000000000E+10   5.526257508631753E-1    3.873843223655695E-1
 1.146000000000000E+10   5.918572818259924E-1    3.278099215608103E-1
 1.147000000000000E+10   6.245324968072457E-1    2.645351374780568E-1
 1.148000000000000E+10   6.506690274331182E-1    1.982233252803887E-1
 1.149000000000000E+10   6.697998135174968E-1    1.297292262691904E-1
 1.150000000000000E+10   6.822492379089280E-1    5.973571453930197E-2
 1.151000000000000E+10   6.875722280743117E-1   -1.112516520798036E-2
 1.152000000000000E+10   6.855274231761319E-1   -8.204284407818350E-2
 1.153000000000000E+10   6.760556274297838E-1   -1.524082457971406E-1
 1.154000000000000E+10   6.589282813775533E-1   -2.213637822405221E-1
 1.155000000000000E+10   6.343731713293244E-1   -2.880270862512369E-1
 1.156000000000000E+10   6.025790304653060E-1   -3.519052540235578E-1
 1.157000000000000E+10   5.641767870319708E-1   -4.120671330949891E-1
 1.158000000000000E+10   5.198402790626517E-1   -4.680022218965612E-1
 1.159000000000000E+10   4.699622508000187E-1   -5.190796737111968E-1
 1.160000000000000E+10   4.151130114282968E-1   -5.651366285374982E-1
 1.161000000000000E+10   3.558736367968078E-1   -6.053162097463282E-1
 1.162000000000000E+10   2.923948682862486E-1   -6.392205139657833E-1
 1.163000000000000E+10   2.251478459717796E-1   -6.661995868462157E-1
 1.164000000000000E+10   1.546711604249874E-1   -6.856231860956248E-1
 1.165000000000000E+10   8.158436923569115E-2   -6.973888840346175E-1
 1.166000000000000E+10   6.959733467201013E-3   -7.007713737642013E-1
 1.167000000000000E+10  -6.838222848096261E-2   -6.960033649894506E-1
 1.168000000000000E+10  -1.431905350120593E-1   -6.832963747359747E-1
 1.169000000000000E+10  -2.167232761302115E-1   -6.627225599402867E-1
 1.170000000000000E+10  -2.879590339589038E-1   -6.344535993460597E-1
 1.171000000000000E+10  -3.557497311417289E-1   -5.985293163841943E-1
 1.172000000000000E+10  -4.192674977371851E-1   -5.550739578667204E-1
 1.173000000000000E+10  -4.776128768995811E-1   -5.040707506063955E-1
 1.174000000000000E+10  -5.301067919415600E-1   -4.457440100279422E-1
 1.175000000000000E+10  -5.756754837755625E-1   -3.804597596925282E-1
 1.176000000000000E+10  -6.140093974439740E-1   -3.089299771850258E-1
 1.177000000000000E+10  -6.441802454293034E-1   -2.319119539585263E-1
 1.178000000000000E+10  -6.656841257219812E-1   -1.507349766948184E-1
 1.179000000000000E+10  -6.778009353669848E-1   -6.706286988255623E-2
 1.180000000000000E+10  -6.803011297702128E-1    1.800059454129008E-2
 1.181000000000000E+10  -6.727522135419357E-1    1.028228555271810E-1
 1.182000000000000E+10  -6.551838926812836E-1    1.860608813077162E-1
 1.183000000000000E+10  -6.268289054785489E-1    2.670305645009092E-1
 1.184000000000000E+10  -5.876235571073596E-1    3.438795136976168E-1
 1.185000000000000E+10  -5.381197253103440E-1    4.157651786131123E-1
 1.186000000000000E+10  -4.787964221517653E-1    4.815852213454511E-1
 1.187000000000000E+10  -4.108529744604260E-1    5.401116678658997E-1
 1.188000000000000E+10  -3.354702471902954E-1    5.905613475116721E-1
 1.189000000000000E+10  -2.540356001938664E-1    6.317939965604901E-1
 1.190000000000000E+10  -1.680972549045038E-1    6.630024870408541E-1
 1.191000000000000E+10  -7.848493766950387E-2    6.834568739361760E-1
 1.192000000000000E+10   1.369132449112029E-2    6.919241342042289E-1
 1.193000000000000E+10   1.073723548650482E-1    6.875307644760188E-1
 1.194000000000000E+10   2.019130235811324E-1    6.690453829730797E-1
 1.195000000000000E+10   2.965365930252983E-1    6.351812735125248E-1
 1.196000000000000E+10   3.905831627722129E-1    5.826941365063756E-1
 1.197000000000000E+10   4.818637451406255E-1    5.047479447976156E-1
 1.198000000000000E+10   5.584128837792708E-1    3.842459772659085E-1
 1.199000000000000E+10   5.531837538124502E-1    1.992745370829643E-1
 1.200000000000000E+10   3.479945902442503E-1    1.443903762843454E-1
 1.201000000000000E+10   3.508454450408551E-1    3.132417010296186E-1
 1.202000000000000E+10   4.755843673211022E-1    3.350831665630251E-1
 1.203000000000000E+10   5.667733889542043E-1    2.857674963215539E-1
 1.204000000000000E+10   6.269087690953593E-1    2.163368715950932E-1
 1.205000000000000E+10   6.659710906950642E-1    1.396750837970034E-1
 1.206000000000000E+10   6.892668004239246E-1    5.997829178859220E-2
 1.207000000000000E+10   7.000299850599027E-1   -2.069083420146810E-2
 1.208000000000000E+10   7.002499951675798E-1   -1.013267845105622E-1
 1.209000000000000E+10   6.912097217769314E-1   -1.801909644293518E-1
 1.210000000000000E+10   6.741978938227955E-1   -2.563431872111688E-1
 1.211000000000000E+10   6.499643698308013E-1   -3.287101245506571E-1
 1.212000000000000E+10   6.188533595746966E-1   -3.964404246156903E-1
 1.213000000000000E+10   5.815527775250720E-1   -4.590141060831868E-1
 1.214000000000000E+10   5.377368790681964E-1   -5.161874980101054E-1
 1.215000000000000E+10   4.882809963893486E-1   -5.676353547444061E-1
 1.216000000000000E+10   4.333111302372299E-1   -6.136940567323400E-1
 1.217000000000000E+10   3.734509600530241E-1   -6.541194912865115E-1
 1.218000000000000E+10   3.094725969937888E-1   -6.889989741237780E-1
 1.219000000000000E+10   2.425176604104881E-1   -7.183555243548148E-1
 1.220000000000000E+10   1.735626572593952E-1   -7.417592701967416E-1
 1.221000000000000E+10   1.034973757928711E-1   -7.588538058389775E-1
 1.222000000000000E+10   3.315380405986723E-2   -7.695235587470396E-1
 1.223000000000000E+10  -3.677365158788343E-2   -7.731049098309873E-1
 1.224000000000000E+10  -1.058905184821033E-1   -7.693352571928564E-1
 1.225000000000000E+10  -1.745142377083047E-1   -7.582645172609948E-1
 1.226000000000000E+10  -2.421424933394665E-1   -7.397969171515903E-1
 1.227000000000000E+10  -3.090393257714941E-1   -7.137209579977368E-1
 1.228000000000000E+10  -3.744622652579891E-1   -6.808668615388800E-1
 1.229000000000000E+10  -4.378565502958297E-1   -6.417333848892608E-1
 1.230000000000000E+10  -4.983969108072939E-1   -5.969470152711744E-1
 1.231000000000000E+10  -5.552906091625415E-1   -5.470558816598218E-1
 1.232000000000000E+10  -6.073495902634162E-1   -4.928324262182581E-1
 1.233000000000000E+10  -6.534406685065662E-1   -4.344924359298545E-1
 1.234000000000000E+10  -6.930630563732237E-1   -3.722809037980496E-1
 1.235000000000000E+10  -7.257632324226511E-1   -3.058741018826280E-1
 1.236000000000000E+10  -7.509722875898601E-1   -2.357865765474344E-1
 1.237000000000000E+10  -7.687866276219500E-1   -1.615767750333100E-1
 1.238000000000000E+10  -7.787643098136898E-1   -8.386202513235418E-2
 1.239000000000000E+10  -7.810973358540880E-1   -3.109044885886352E-3
 1.240000000000000E+10  -7.755553529675505E-1    7.927277773908277E-2
 1.241000000000000E+10  -7.621473693992242E-1    1.619447887534422E-1
 1.242000000000000E+10  -7.403341194696500E-1    2.434003357817193E-1
 1.243000000000000E+10  -7.101787038326812E-1    3.222808331368018E-1
 1.244000000000000E+10  -6.716381008099379E-1    3.971479160579913E-1
 1.245000000000000E+10  -6.242485620829277E-1    4.670827252871063E-1
 1.246000000000000E+10  -5.677913669254483E-1    5.313871334972585E-1
 1.247000000000000E+10  -5.030050382973675E-1    5.892366665271718E-1
 1.248000000000000E+10  -4.300445245759362E-1    6.402223061287843E-1
 1.249000000000000E+10  -3.494393595407199E-1    6.836131054107492E-1
 1.250000000000000E+10  -2.628962933402479E-1    7.182072162696728E-1
