#  HZ   S   RI   R     50.00 
! Rohde & Schwarz Vector Network Analyzer 
! Rohde-Schwarz,ZNA43-4Port,1332450044101932,2.92
! Created: UTC 6/1/2026, 11:33:49 AM
! freq[Hz]                re:S11                  im:S11
 8.000000000000000E9     1.872421417495466E-1    1.848023270216754E-1
 8.010000000000000E9     1.701872292424731E-1    1.687610688013322E-1
 8.020000000000000E9     1.509221150553129E-1    1.564629116829581E-1
 8.030000000000000E9     1.304333034053061E-1    1.479767617077764E-1
 8.040000000000000E9     1.099568729690806E-1    1.434073117019084E-1
 8.050000000000000E9     9.056677968276271E-2    1.428616410137438E-1
 8.060000000000000E9     7.319293858680861E-2    1.462475621038842E-1
 8.070000000000000E9     5.866735062982006E-2    1.535705108379465E-1
 8.080000000000000E9     4.736075739110601E-2    1.644981053554654E-1
 8.090000000000000E9     3.956308024375944E-2    1.785708365969532E-1
 8.100000000000000E9     3.533540546287626E-2    1.951355237826732E-1
 8.110000000000000E9     3.453785748196556E-2    2.132884716314630E-1
 8.120000000000000E9     3.724497253927407E-2    2.320310668824562E-1
 8.130000000000000E9     4.326982283157854E-2    2.503663938043884E-1
 8.140000000000000E9     5.239956118656895E-2    2.674598492365228E-1
 8.150000000000000E9     6.478199275250837E-2    2.823970698961377E-1
 8.160000000000000E9     8.027892728817755E-2    2.947412052116996E-1
 8.170000000000000E9     9.876311508683377E-2    3.040831554258604E-1
 8.180000000000000E9     1.200108228978308E-1    3.103544333306105E-1
 8.190000000000000E9     1.436201883527309E-1    3.136510018481672E-1
 8.200000000000000E9     1.690027808838400E-1    3.139969066969548E-1
 8.210000000000000E9     1.952949433019295E-1    3.115663063135625E-1
 8.220000000000000E9     2.218416175725238E-1    3.063020382987605E-1
 8.230000000000000E9     2.478145853984625E-1    2.981995039739401E-1
 8.240000000000000E9     2.725386982117111E-1    2.870037898489404E-1
 8.250000000000000E9     2.955420616927189E-1    2.727558414602192E-1
 8.260000000000000E9     3.165071239719199E-1    2.550912249921999E-1
 8.270000000000000E9     3.352730121585533E-1    2.339250082906123E-1
 8.280000000000000E9     3.519082172547860E-1    2.093784162623731E-1
 8.290000000000000E9     3.663302152595568E-1    1.817039157694153E-1
 8.300000000000000E9     3.785027139202062E-1    1.517200909248483E-1
 8.310000000000000E9     3.882544023901812E-1    1.198991439325117E-1
 8.320000000000000E9     3.953163963708688E-1    8.712971965391844E-2
 8.330000000000000E9     3.993704194476257E-1    5.401801669306333E-2
 8.340000000000000E9     3.999508304616018E-1    2.113107915496645E-2
 8.350000000000000E9     3.966244980122750E-1   -1.108840193754052E-2
 8.360000000000000E9     3.889788081055172E-1   -4.243672283187657E-2
 8.370000000000000E9     3.768956362347348E-1   -7.284963457282273E-2
 8.380000000000000E9     3.604351680563391E-1   -1.022186788932361E-1
 8.390000000000000E9     3.399874633854184E-1   -1.302991455073816E-1
 8.400000000000000E9     3.158788401051864E-1   -1.569281694503961E-1
 8.410000000000000E9     2.887823827219303E-1   -1.817579200638874E-1
 8.420000000000000E9     2.594709107432568E-1   -2.039533797017555E-1
 8.430000000000000E9     2.283896913545463E-1   -2.228668806044929E-1
 8.440000000000000E9     1.961334167382580E-1   -2.378633404435059E-1
 8.450000000000000E9     1.630537191936501E-1   -2.482352685556487E-1
 8.460000000000000E9     1.292017118543135E-1   -2.534321092239529E-1
 8.470000000000000E9     9.458257688207033E-2   -2.531890376457240E-1
 8.480000000000000E9     5.949068580036485E-2   -2.468472711018124E-1
 8.490000000000000E9     2.576783885804623E-2   -2.336610294559281E-1
 8.500000000000000E9    -3.001656591911660E-3   -2.171987721992983E-1
 8.510000000000000E9    -3.100492033291204E-2   -2.014210769915131E-1
 8.520000000000000E9    -5.935382958129339E-2   -1.829239178418453E-1
 8.530000000000000E9    -8.516540744251745E-2   -1.612654727641110E-1
 8.540000000000000E9    -1.070482521343745E-1   -1.371743958001769E-1
 8.550000000000000E9    -1.242966181767130E-1   -1.111421751616637E-1
 8.560000000000000E9    -1.363836422530294E-1   -8.348954049139681E-2
 8.570000000000000E9    -1.431365261209102E-1   -5.461223135881410E-2
 8.580000000000000E9    -1.448700588281570E-1   -2.487144753234278E-2
 8.590000000000000E9    -1.418848647549813E-1    5.318301095401839E-3
 8.600000000000000E9    -1.346904482770299E-1    3.528646351869180E-2
 8.610000000000000E9    -1.239447577791816E-1    6.403840239267489E-2
 8.620000000000000E9    -1.102345911566958E-1    9.074193940632326E-2
 8.630000000000000E9    -9.379367573516788E-2    1.145735751789860E-1
 8.640000000000000E9    -7.495690970470141E-2    1.346394469581528E-1
 8.650000000000000E9    -5.387926942247236E-2    1.504818023603118E-1
 8.660000000000000E9    -3.091493038170861E-2    1.617635326930764E-1
 8.670000000000000E9    -6.163176768367878E-3    1.683461317687052E-1
 8.680000000000000E9     2.004415253608169E-2    1.704809339383928E-1
 8.690000000000000E9     4.718308565833219E-2    1.685491931228432E-1
 8.700000000000000E9     7.435993049078525E-2    1.627903162753897E-1
 8.710000000000000E9     1.007197252822994E-1    1.537729250345382E-1
 8.720000000000000E9     1.254386684122067E-1    1.417173663381572E-1
 8.730000000000000E9     1.475703648672359E-1    1.266051950871372E-1
 8.740000000000000E9     1.664780131485865E-1    1.086995464597249E-1
 8.750000000000000E9     1.815990299502198E-1    8.795945028757830E-2
 8.760000000000000E9     1.926015549283675E-1    6.442091892567199E-2
 8.770000000000000E9     1.994712358862290E-1    3.844572046617079E-2
 8.780000000000000E9     2.023552439597348E-1    1.030225261071631E-2
 8.790000000000000E9     2.014025674374726E-1   -1.941456402779377E-2
 8.800000000000000E9     1.967368575205981E-1   -4.973640565687719E-2
 8.810000000000000E9     1.885022456433635E-1   -7.985994614030929E-2
 8.820000000000000E9     1.766061310314451E-1   -1.087014043487380E-1
 8.830000000000000E9     1.611043473526479E-1   -1.354487140372374E-1
 8.840000000000000E9     1.418626573926106E-1   -1.593524597308721E-1
 8.850000000000000E9     1.188650234243186E-1   -1.799526004618154E-1
 8.860000000000000E9     9.211683772808148E-2   -1.969598010486369E-1
 8.870000000000000E9     6.194426874968685E-2   -2.101253280741807E-1
 8.880000000000000E9     2.878480614334548E-2   -2.195072328290613E-1
 8.890000000000000E9    -6.565727005934515E-3   -2.250491172029596E-1
 8.900000000000000E9    -4.320804808811151E-2   -2.267159353370069E-1
 8.910000000000000E9    -8.017268461916349E-2   -2.243470654649893E-1
 8.920000000000000E9    -1.165439054637400E-1   -2.177401801597193E-1
 8.930000000000000E9    -1.514189339643764E-1   -2.066189208782453E-1
 8.940000000000000E9    -1.842302308733645E-1   -1.909627229181410E-1
 8.950000000000000E9    -2.144681448599167E-1   -1.706114055295026E-1
 8.960000000000000E9    -2.418032156129740E-1   -1.456011412630268E-1
 8.970000000000000E9    -2.661866036632157E-1   -1.164249494961739E-1
 8.980000000000000E9    -2.874457515215216E-1   -8.357918126613081E-2
 8.990000000000000E9    -3.053824511588404E-1   -4.775457291112375E-2
 9.000000000000000E9    -3.195533240371735E-1   -9.892052765483413E-3
 9.010000000000000E9    -3.301516694197444E-1    2.909189042617668E-2
 9.020000000000000E9    -3.365668824331862E-1    6.831256425990814E-2
 9.030000000000000E9    -3.382573262978285E-1    1.072759986612856E-1
 9.040000000000000E9    -3.351191362860431E-1    1.452936095645621E-1
 9.050000000000000E9    -3.270797543744905E-1    1.821911008193832E-1
 9.060000000000000E9    -3.142241837072988E-1    2.176215618431900E-1
 9.070000000000000E9    -2.966073474609830E-1    2.516772376256664E-1
 9.080000000000000E9    -2.748585633411416E-1    2.839962747152988E-1
 9.090000000000000E9    -2.494830714263027E-1    3.143965876471731E-1
 9.100000000000000E9    -2.211743973369123E-1    3.425837258644853E-1
 9.110000000000000E9    -1.905998215593695E-1    3.679591152426523E-1
 9.120000000000000E9    -1.583269961716308E-1    3.899563387870367E-1
 9.130000000000000E9    -1.248902265922518E-1    4.081010404311403E-1
 9.140000000000000E9    -9.061821239035893E-2    4.220327515643694E-1
 9.150000000000000E9    -5.578435405789881E-2    4.315158311196892E-1
 9.160000000000000E9    -2.050261971612017E-2    4.363821435123019E-1
 9.170000000000000E9     1.500189864250291E-2    4.368189271702279E-1
 9.180000000000000E9     5.074514580234440E-2    4.331063067099330E-1
 9.190000000000000E9     8.620936451417238E-2    4.255236564418532E-1
 9.200000000000000E9     1.211751466433571E-1    4.142861843289063E-1
 9.210000000000000E9     1.548567560902659E-1    3.998791333202764E-1
 9.220000000000000E9     1.867440079888259E-1    3.824269915697696E-1
 9.230000000000000E9     2.162431962081458E-1    3.620576020380976E-1
 9.240000000000000E9     2.426652926865696E-1    3.389313464183099E-1
 9.250000000000000E9     2.656868975793438E-1    3.132179741683648E-1
 9.260000000000000E9     2.848807486421243E-1    2.852381797120828E-1
 9.270000000000000E9     3.001609624197836E-1    2.550395323457273E-1
 9.280000000000000E9     3.116313229545938E-1    2.230489569198134E-1
 9.290000000000000E9     3.190684874642415E-1    1.896178457541747E-1
 9.300000000000000E9     3.226239425757452E-1    1.552798672229479E-1
 9.310000000000000E9     3.220559322407253E-1    1.207185366252490E-1
 9.320000000000000E9     3.173339584530322E-1    8.649774481036136E-2
 9.330000000000000E9     3.085434172727961E-1    5.339700078271790E-2
 9.340000000000000E9     2.954644077850063E-1    2.212477699085600E-2
 9.350000000000000E9     2.781141457694847E-1   -6.708369526642983E-3
 9.360000000000000E9     2.566451329655604E-1   -3.249287744094344E-2
 9.370000000000000E9     2.314637821255360E-1   -5.474322655281380E-2
 9.380000000000000E9     2.029666399342030E-1   -7.311413236876867E-2
 9.390000000000000E9     1.715712606414428E-1   -8.719162679758215E-2
 9.400000000000000E9     1.381107332541560E-1   -9.669008323808888E-2
 9.410000000000000E9     1.031977801740916E-1   -1.011454624836615E-1
 9.420000000000000E9     6.790137945262317E-2   -1.004462421746701E-1
 9.430000000000000E9     3.283750871180714E-2   -9.442073935081452E-2
 9.440000000000000E9    -9.833501707299187E-4   -8.296215879434653E-2
 9.450000000000000E9    -3.283433950409817E-2   -6.635111493210424E-2
 9.460000000000000E9    -6.181630553553516E-2   -4.468502831167606E-2
 9.470000000000000E9    -8.719042822366696E-2   -1.870736912784887E-2
 9.480000000000000E9    -1.084108572016734E-1    1.111970849133495E-2
 9.490000000000000E9    -1.251629789522479E-1    4.395144124629348E-2
 9.500000000000000E9    -1.364505937242889E-1    7.916190728458034E-2
 9.510000000000000E9    -1.426387863256702E-1    1.160730864670493E-1
 9.520000000000000E9    -1.433237231603095E-1    1.536715373333907E-1
 9.530000000000000E9    -1.383041274950774E-1    1.911772441775359E-1
 9.540000000000000E9    -1.278970301274210E-1    2.279681291397254E-1
 9.550000000000000E9    -1.124543389652571E-1    2.632314403044327E-1
 9.560000000000000E9    -9.251148232540077E-2    2.964282809093454E-1
 9.570000000000000E9    -6.846326976669032E-2    3.268174301980777E-1
 9.580000000000000E9    -4.098361897274592E-2    3.540159123641931E-1
 9.590000000000000E9    -1.049376251905187E-2    3.775443995730342E-1
 9.600000000000000E9     2.257386664465608E-2    3.969563667445259E-1
 9.610000000000000E9     5.766720398765601E-2    4.120754675963619E-1
 9.620000000000000E9     9.439760734441864E-2    4.227424357299444E-1
 9.630000000000000E9     1.322246232139492E-1    4.288436327898170E-1
 9.640000000000000E9     1.707306956338280E-1    4.306309990846044E-1
 9.650000000000000E9     2.093381951485388E-1    4.281623913652173E-1
 9.660000000000000E9     2.474944207828032E-1    4.218372854846649E-1
 9.670000000000000E9     2.849339259266498E-1    4.119619142955386E-1
 9.680000000000000E9     3.209588816281705E-1    3.987173996123716E-1
 9.690000000000000E9     3.552341762723821E-1    3.823915567779068E-1
 9.700000000000000E9     3.874476704546358E-1    3.628314527841528E-1
 9.710000000000000E9     4.173555923147162E-1    3.402392891632402E-1
 9.720000000000000E9     4.447593824865297E-1    3.147072496396227E-1
 9.730000000000000E9     4.694520226249309E-1    2.862701758681678E-1
 9.740000000000000E9     4.913423386148003E-1    2.553514166119430E-1
 9.750000000000000E9     5.104092117091653E-1    2.222240666663260E-1
 9.760000000000000E9     5.266032955658271E-1    1.873467156096775E-1
 9.770000000000000E9     5.399269926739563E-1    1.512956525673133E-1
 9.780000000000000E9     5.502900229317188E-1    1.144030012705329E-1
 9.790000000000000E9     5.574525585364322E-1    7.705960278818981E-2
 9.800000000000000E9     5.612317777232012E-1    3.958212194838461E-2
 9.810000000000000E9     5.614905793833301E-1    1.952423521781949E-3
 9.820000000000000E9     5.578476227512436E-1   -3.555416683137697E-2
 9.830000000000000E9     5.503734959614494E-1   -7.297379137463958E-2
 9.840000000000000E9     5.390071917140863E-1   -1.101324534218616E-1
 9.850000000000000E9     5.237166067005353E-1   -1.468061231571132E-1
 9.860000000000000E9     5.048481698469964E-1   -1.826180777060864E-1
 9.870000000000000E9     4.827741573534630E-1   -2.170477341471944E-1
 9.880000000000000E9     4.577214103703562E-1   -2.495674043621304E-1
 9.890000000000000E9     4.299512135118909E-1   -2.796262110432528E-1
 9.900000000000000E9     3.995644130910757E-1   -3.067093311697854E-1
 9.910000000000000E9     3.665594225253934E-1   -3.303134031557186E-1
 9.920000000000000E9     3.308547211407256E-1   -3.500552614116736E-1
 9.930000000000000E9     2.924128879952604E-1   -3.656679363967641E-1
 9.940000000000000E9     2.514471314249196E-1   -3.767285636914939E-1
 9.950000000000000E9     2.081594264674022E-1   -3.832095523604495E-1
 9.960000000000000E9     1.629001914148127E-1   -3.849822204881313E-1
 9.970000000000000E9     1.167284439023783E-1   -3.818614495790381E-1
 9.980000000000000E9     7.040896624161309E-2   -3.736774289068199E-1
 9.990000000000000E9     2.486019781480955E-2   -3.602196904489885E-1
 1.000000000000000E+10  -1.876411641959095E-2   -3.410672963609485E-1
 1.001000000000000E+10  -6.045571978678551E-2   -3.160181694665348E-1
 1.002000000000000E+10  -9.881308604090409E-2   -2.840556083433195E-1
 1.003000000000000E+10  -1.338629798992632E-1   -2.440121743121575E-1
 1.004000000000000E+10  -1.647471736371016E-1   -1.933068438230530E-1
 1.005000000000000E+10  -1.867640875711755E-1   -1.250990877567300E-1
 1.006000000000000E+10  -1.686951180966937E-1   -3.284150307769956E-2
 1.007000000000000E+10  -8.954032842910230E-2   -1.894575180915074E-2
 1.008000000000000E+10  -1.072823627266322E-1   -3.688953045985093E-2
 1.009000000000000E+10  -1.309773427173572E-1   -4.360295799731120E-3
 1.010000000000000E+10  -1.371760324818777E-1    3.974233994213427E-2
 1.011000000000000E+10  -1.302502124120895E-1    8.406878142172923E-2
 1.012000000000000E+10  -1.132652060712126E-1    1.254477083328624E-1
 1.013000000000000E+10  -8.788844786841633E-2    1.626287505301447E-1
 1.014000000000000E+10  -5.550090644442712E-2    1.951543864624011E-1
 1.015000000000000E+10  -1.722211196336289E-2    2.226411656617937E-1
 1.016000000000000E+10   2.533207145654717E-2    2.447142135321217E-1
 1.017000000000000E+10   7.057909290063971E-2    2.613906834758642E-1
 1.018000000000000E+10   1.172510246367953E-1    2.722631158132925E-1
 1.019000000000000E+10   1.638357868127508E-1    2.771418826140541E-1
 1.020000000000000E+10   2.090364577968610E-1    2.759547495495628E-1
 1.021000000000000E+10   2.524322052105776E-1    2.683607298542980E-1
 1.022000000000000E+10   2.934777046552848E-1    2.544831970254631E-1
 1.023000000000000E+10   3.319443218324031E-1    2.344158087653462E-1
 1.024000000000000E+10   3.675793267826803E-1    2.084875257752305E-1
 1.025000000000000E+10   4.006535906245697E-1    1.775122952168143E-1
 1.026000000000000E+10   4.305753301983855E-1    1.423800460905154E-1
 1.027000000000000E+10   4.572618636329972E-1    1.042538079788203E-1
 1.028000000000000E+10   4.801616093615470E-1    6.420669670865177E-2
 1.029000000000000E+10   4.989506675169861E-1    2.321908259392394E-2
 1.030000000000000E+10   5.131128292581126E-1   -1.820787830879319E-2
 1.031000000000000E+10   5.221555400334332E-1   -5.970579845441139E-2
 1.032000000000000E+10   5.259900996226871E-1   -1.011585897853590E-1
 1.033000000000000E+10   5.243128227122336E-1   -1.428227158206914E-1
 1.034000000000000E+10   5.175555960969330E-1   -1.844711124026653E-1
 1.035000000000000E+10   5.059128439614640E-1   -2.260676169120856E-1
 1.036000000000000E+10   4.898244578756056E-1   -2.677015982556781E-1
 1.037000000000000E+10   4.700173074853523E-1   -3.087064623954550E-1
 1.038000000000000E+10   4.469849277644030E-1   -3.483931460774622E-1
 1.039000000000000E+10   4.212162652877052E-1   -3.858648453040334E-1
 1.040000000000000E+10   3.929947492186127E-1   -4.204434392605672E-1
 1.041000000000000E+10   3.623739305175255E-1   -4.515658836429396E-1
 1.042000000000000E+10   3.290640295689128E-1   -4.786969925834280E-1
 1.043000000000000E+10   2.929900852322611E-1   -5.016623155319117E-1
 1.044000000000000E+10   2.538629789639135E-1   -5.206497359915062E-1
 1.045000000000000E+10   2.117384659246427E-1   -5.356156629520504E-1
 1.046000000000000E+10   1.667521290139061E-1   -5.469654785671426E-1
 1.047000000000000E+10   1.196614044098910E-1   -5.546674305149569E-1
 1.048000000000000E+10   7.118729887371374E-2   -5.587629769893948E-1
 1.049000000000000E+10   2.209667723319041E-2   -5.591799760684311E-1
 1.050000000000000E+10  -2.638771597422871E-2   -5.555790412380067E-1
 1.051000000000000E+10  -7.378409169869626E-2   -5.476335560397018E-1
 1.052000000000000E+10  -1.192928700823225E-1   -5.349380444452658E-1
 1.053000000000000E+10  -1.628471745102075E-1   -5.170968993498466E-1
 1.054000000000000E+10  -2.043709927001567E-1   -4.937284253481270E-1
 1.055000000000000E+10  -2.439363832534852E-1   -4.648368972196374E-1
 1.056000000000000E+10  -2.811824407844524E-1   -4.306005469674641E-1
 1.057000000000000E+10  -3.162280611448919E-1   -3.915717884849235E-1
 1.058000000000000E+10  -3.484523079890308E-1   -3.483165745820286E-1
 1.059000000000000E+10  -3.768646202676569E-1   -3.016684822113715E-1
 1.060000000000000E+10  -4.008526345807514E-1   -2.526654328764445E-1
 1.061000000000000E+10  -4.194309707273828E-1   -2.016832009550896E-1
 1.062000000000000E+10  -4.317767168242478E-1   -1.496800786744489E-1
 1.063000000000000E+10  -4.371858930794587E-1   -9.680170656152257E-2
 1.064000000000000E+10  -4.351038824258177E-1   -4.351000556228497E-2
 1.065000000000000E+10  -4.256630795927122E-1    1.004818268042581E-2
 1.066000000000000E+10  -4.089808994145461E-1    6.337499909965054E-2
 1.067000000000000E+10  -3.853298688377703E-1    1.161364722221828E-1
 1.068000000000000E+10  -3.553100772382866E-1    1.670620554253796E-1
 1.069000000000000E+10  -3.196111878329629E-1    2.151237699918417E-1
 1.070000000000000E+10  -2.789680115309316E-1    2.589736183471859E-1
 1.071000000000000E+10  -2.341748411239885E-1    2.971257113680693E-1
 1.072000000000000E+10  -1.859083812078636E-1    3.284270431701811E-1
 1.073000000000000E+10  -1.344893360370592E-1    3.522008202635380E-1
 1.074000000000000E+10  -8.040774078619782E-2    3.680042057655283E-1
 1.075000000000000E+10  -2.411059497022669E-2    3.755976329457323E-1
 1.076000000000000E+10   3.357367903890660E-2    3.751884956904765E-1
 1.077000000000000E+10   9.199906382165308E-2    3.671701838194844E-1
 1.078000000000000E+10   1.500798168281052E-1    3.521522123295843E-1
 1.079000000000000E+10   2.063489584383628E-1    3.304713642559086E-1
 1.080000000000000E+10   2.593359012873961E-1    3.029909811545372E-1
 1.081000000000000E+10   3.077278475714272E-1    2.699852276515500E-1
 1.082000000000000E+10   3.504697462912104E-1    2.321134488948026E-1
 1.083000000000000E+10   3.867547917792626E-1    1.896155994264897E-1
 1.084000000000000E+10   4.162091663369873E-1    1.429719145646642E-1
 1.085000000000000E+10   4.387510315019331E-1    9.258804504470954E-2
 1.086000000000000E+10   4.544764654790928E-1    3.889597458757738E-2
 1.087000000000000E+10   4.636751794359912E-1   -1.737970529863615E-2
 1.088000000000000E+10   4.665238046440150E-1   -7.482875534129964E-2
 1.089000000000000E+10   4.634247138570316E-1   -1.326176080035851E-1
 1.090000000000000E+10   4.541953476619715E-1   -1.894668608999029E-1
 1.091000000000000E+10   4.389587426337577E-1   -2.442128824004274E-1
 1.092000000000000E+10   4.179163600261845E-1   -2.956332117351648E-1
 1.093000000000000E+10   3.913468197319480E-1   -3.430369999988452E-1
 1.094000000000000E+10   3.591839465923334E-1   -3.862821005070678E-1
 1.095000000000000E+10   3.218037070366755E-1   -4.250400262001904E-1
 1.096000000000000E+10   2.792819873679685E-1   -4.592344595616841E-1
 1.097000000000000E+10   2.323569597433571E-1   -4.893150351425904E-1
 1.098000000000000E+10   1.814977097228481E-1   -5.145212337756467E-1
 1.099000000000000E+10   1.277485576018770E-1   -5.348227058882127E-1
 1.100000000000000E+10   7.205149618572390E-2   -5.498725401881726E-1
 1.101000000000000E+10   1.563907911533707E-2   -5.593203204265517E-1
 1.102000000000000E+10  -4.088133079536360E-2   -5.624214685767055E-1
 1.103000000000000E+10  -9.679084008512424E-2   -5.591589408050572E-1
 1.104000000000000E+10  -1.515289848341433E-1   -5.492916824824323E-1
 1.105000000000000E+10  -2.046778007053330E-1   -5.329946620526792E-1
 1.106000000000000E+10  -2.561836120779168E-1   -5.106243111215397E-1
 1.107000000000000E+10  -3.057432212496229E-1   -4.822277182567944E-1
 1.108000000000000E+10  -3.529877752866759E-1   -4.481710465208903E-1
 1.109000000000000E+10  -3.974567444357963E-1   -4.089568974547357E-1
 1.110000000000000E+10  -4.383188698539712E-1   -3.650303043700387E-1
 1.111000000000000E+10  -4.748377465248889E-1   -3.169408693119684E-1
 1.112000000000000E+10  -5.059270584991160E-1   -2.652621194191013E-1
 1.113000000000000E+10  -5.309685277046797E-1   -2.106378712145132E-1
 1.114000000000000E+10  -5.496330985926270E-1   -1.535891630497903E-1
 1.115000000000000E+10  -5.615138372679038E-1   -9.469484988583184E-2
 1.116000000000000E+10  -5.667982904830089E-1   -3.435891573486741E-2
 1.117000000000000E+10  -5.653394223916780E-1    2.688437894747352E-2
 1.118000000000000E+10  -5.573907664883109E-1    8.837329946829488E-2
 1.119000000000000E+10  -5.430745487117467E-1    1.494702472704924E-1
 1.120000000000000E+10  -5.224081115969487E-1    2.091990462419528E-1
 1.121000000000000E+10  -4.955442978857164E-1    2.665239644458285E-1
 1.122000000000000E+10  -4.625674069115662E-1    3.206102407667630E-1
 1.123000000000000E+10  -4.236676769021681E-1    3.704302949279816E-1
 1.124000000000000E+10  -3.793930991391674E-1    4.153472150529882E-1
 1.125000000000000E+10  -3.301948306437784E-1    4.548131741019096E-1
 1.126000000000000E+10  -2.767926091529804E-1    4.884116841625261E-1
 1.127000000000000E+10  -2.197178559529613E-1    5.161069514890828E-1
 1.128000000000000E+10  -1.595409329847901E-1    5.376517336990739E-1
 1.129000000000000E+10  -9.697557966285189E-2    5.529357147835591E-1
 1.130000000000000E+10  -3.301593129095480E-2    5.615806334085390E-1
 1.131000000000000E+10   3.137442490498534E-2    5.635571821696540E-1
 1.132000000000000E+10   9.536196501770443E-2    5.583707852529308E-1
 1.133000000000000E+10   1.581292259107211E-1    5.462151367766757E-1
 1.134000000000000E+10   2.187355215944462E-1    5.271328642528079E-1
 1.135000000000000E+10   2.765334056999418E-1    5.015215539825281E-1
 1.136000000000000E+10   3.310327802588337E-1    4.695522836036353E-1
 1.137000000000000E+10   3.816443924508383E-1    4.320184268910206E-1
 1.138000000000000E+10   4.281828008429645E-1    3.894943579815131E-1
 1.139000000000000E+10   4.700828747772604E-1    3.421774251127310E-1
 1.140000000000000E+10   5.069067364319285E-1    2.907852294630716E-1
 1.141000000000000E+10   5.381503999723384E-1    2.358699926480594E-1
 1.142000000000000E+10   5.631462877779639E-1    1.779421832905133E-1
 1.143000000000000E+10   5.814949986968329E-1    1.177463636275846E-1
 1.144000000000000E+10   5.929260247048784E-1    5.592674849148543E-2
 1.145000000000000E+10   5.974817003146708E-1   -6.757655922815006E-3
 1.146000000000000E+10   5.952606823362036E-1   -6.966483888890999E-2
 1.147000000000000E+10   5.864912024815552E-1   -1.320215410631070E-1
 1.148000000000000E+10   5.713498387625721E-1   -1.933723170637991E-1
 1.149000000000000E+10   5.499356531649314E-1   -2.529760866443427E-1
 1.150000000000000E+10   5.225064203428270E-1   -3.101191770324668E-1
 1.151000000000000E+10   4.891141821194701E-1   -3.641635227591062E-1
 1.152000000000000E+10   4.499324065124785E-1   -4.143872273228743E-1
 1.153000000000000E+10   4.052607332789304E-1   -4.601187747586422E-1
 1.154000000000000E+10   3.554931424731843E-1   -5.005988151458305E-1
 1.155000000000000E+10   3.012855416946810E-1   -5.353156407458761E-1
 1.156000000000000E+10   2.433346621155593E-1   -5.639877029740807E-1
 1.157000000000000E+10   1.822593363720685E-1   -5.863810498288001E-1
 1.158000000000000E+10   1.190292674735219E-1   -6.023309101547679E-1
 1.159000000000000E+10   5.424555121505110E-2   -6.113929968200706E-1
 1.160000000000000E+10  -1.158516526098270E-2   -6.135374544465335E-1
 1.161000000000000E+10  -7.761087863605935E-2   -6.083618768327379E-1
 1.162000000000000E+10  -1.432884380003790E-1   -5.954238744307919E-1
 1.163000000000000E+10  -2.076500042853487E-1   -5.746862478903464E-1
 1.164000000000000E+10  -2.699330682783677E-1   -5.460282670852721E-1
 1.165000000000000E+10  -3.294944345158213E-1   -5.099843959141622E-1
 1.166000000000000E+10  -3.848233495252976E-1   -4.670489209536911E-1
 1.167000000000000E+10  -4.355860158450387E-1   -4.178912767771703E-1
 1.168000000000000E+10  -4.807660664203942E-1   -3.633286656073622E-1
 1.169000000000000E+10  -5.195665963002929E-1   -3.038318032662692E-1
 1.170000000000000E+10  -5.515980117172962E-1   -2.400851556571216E-1
 1.171000000000000E+10  -5.754956328109576E-1   -1.729434483754803E-1
 1.172000000000000E+10  -5.910249949414581E-1   -1.029984902144224E-1
 1.173000000000000E+10  -5.975949730962503E-1   -3.076142912963646E-2
 1.174000000000000E+10  -5.949598697212326E-1    4.288439189694876E-2
 1.175000000000000E+10  -5.830842896598656E-1    1.166449239255965E-1
 1.176000000000000E+10  -5.623234663745098E-1    1.896391560331634E-1
 1.177000000000000E+10  -5.328561787968542E-1    2.603648439427773E-1
 1.178000000000000E+10  -4.953773595432867E-1    3.275591626642528E-1
 1.179000000000000E+10  -4.505017768864138E-1    3.897413710733929E-1
 1.180000000000000E+10  -3.988152631871942E-1    4.459155931761369E-1
 1.181000000000000E+10  -3.410784537041767E-1    4.948911572723947E-1
 1.182000000000000E+10  -2.779659252116596E-1    5.359676103099834E-1
 1.183000000000000E+10  -2.096322979500367E-1    5.686317657329457E-1
 1.184000000000000E+10  -1.372821954217425E-1    5.921426235906065E-1
 1.185000000000000E+10  -6.223380140549821E-2    6.065802949843929E-1
 1.186000000000000E+10   1.440816946147076E-2    6.119919045184457E-1
 1.187000000000000E+10   9.135704002602618E-2    6.086453160957296E-1
 1.188000000000000E+10   1.671758552796701E-1    5.969552179326927E-1
 1.189000000000000E+10   2.405679402689345E-1    5.771046513048723E-1
 1.190000000000000E+10   3.103673519093839E-1    5.494121372245505E-1
 1.191000000000000E+10   3.756964325782984E-1    5.141929502683910E-1
 1.192000000000000E+10   4.357195811477148E-1    4.717041863544533E-1
 1.193000000000000E+10   4.898115503812450E-1    4.222315544115524E-1
 1.194000000000000E+10   5.375502380021969E-1    3.664486113585226E-1
 1.195000000000000E+10   5.787000509906228E-1    3.054355770945372E-1
 1.196000000000000E+10   6.131059133915306E-1    2.401996607056482E-1
 1.197000000000000E+10   6.407577069925366E-1    1.719475222324766E-1
 1.198000000000000E+10   6.612151097013989E-1    1.020411031089359E-1
 1.199000000000000E+10   6.747968786370770E-1    3.151268588700535E-2
 1.200000000000000E+10   6.811316307428362E-1   -3.840199792581352E-2
 1.201000000000000E+10   6.800740715745486E-1   -1.071799632238532E-1
 1.202000000000000E+10   6.717934883733123E-1   -1.743389599015218E-1
 1.203000000000000E+10   6.560294395471142E-1   -2.396113065631214E-1
 1.204000000000000E+10   6.329338998598427E-1   -3.027131377115437E-1
 1.205000000000000E+10   6.030314203069032E-1   -3.637005445604954E-1
 1.206000000000000E+10   5.666266916054016E-1   -4.220099614770900E-1
 1.207000000000000E+10   5.246642911214624E-1   -4.771427760401742E-1
 1.208000000000000E+10   4.778709400011840E-1   -5.285761452540889E-1
 1.209000000000000E+10   4.271830683276082E-1   -5.754176338774577E-1
 1.210000000000000E+10   3.733204709225617E-1   -6.171839252528130E-1
 1.211000000000000E+10   3.166307710172323E-1   -6.532158584341976E-1
 1.212000000000000E+10   2.574799888600792E-1   -6.829284799708201E-1
 1.213000000000000E+10   1.959544006802888E-1   -7.061447666278312E-1
 1.214000000000000E+10   1.319360622707788E-1   -7.225543208613892E-1
 1.215000000000000E+10   6.601821089994774E-2   -7.323753864896224E-1
 1.216000000000000E+10  -1.869291044443451E-3   -7.357749058994739E-1
 1.217000000000000E+10  -7.073981713782899E-2   -7.329787240423907E-1
 1.218000000000000E+10  -1.399594919165370E-1   -7.241716241945133E-1
 1.219000000000000E+10  -2.084934545786613E-1   -7.095769550156320E-1
 1.220000000000000E+10  -2.753175453115246E-1   -6.892645176209979E-1
 1.221000000000000E+10  -3.394989759596843E-1   -6.629450080726736E-1
 1.222000000000000E+10  -4.004158273904446E-1   -6.307167121052624E-1
 1.223000000000000E+10  -4.572276132381463E-1   -5.922499932661078E-1
 1.224000000000000E+10  -5.099580063527358E-1   -5.474424648746024E-1
 1.225000000000000E+10  -5.582932235137280E-1   -4.962036575951158E-1
 1.226000000000000E+10  -6.021114076763066E-1   -4.388185804153770E-1
 1.227000000000000E+10  -6.408585372153844E-1   -3.755965523617560E-1
 1.228000000000000E+10  -6.742873270482318E-1   -3.077534153922872E-1
 1.229000000000000E+10  -7.018949637537453E-1   -2.360441836041893E-1
 1.230000000000000E+10  -7.229378126787487E-1   -1.619126771898535E-1
 1.231000000000000E+10  -7.366382956127210E-1   -8.596327295189915E-2
 1.232000000000000E+10  -7.424462973289824E-1   -9.337501565827262E-3
 1.233000000000000E+10  -7.395038020553361E-1    6.708146056966001E-2
 1.234000000000000E+10  -7.275318176783462E-1    1.432396728834323E-1
 1.235000000000000E+10  -7.058597273645449E-1    2.186464789424725E-1
 1.236000000000000E+10  -6.748244312470367E-1    2.926795489108649E-1
 1.237000000000000E+10  -6.341650548562092E-1    3.647383988064614E-1
 1.238000000000000E+10  -5.847039341275477E-1    4.337802052813433E-1
 1.239000000000000E+10  -5.268453189496791E-1    4.984341847596602E-1
 1.240000000000000E+10  -4.618527293971202E-1    5.572249129662951E-1
 1.241000000000000E+10  -3.907283247636181E-1    6.085554170460076E-1
 1.242000000000000E+10  -3.142203009798158E-1    6.508410030944727E-1
 1.243000000000000E+10  -2.331297452643001E-1    6.830236853839917E-1
 1.244000000000000E+10  -1.485333401112812E-1    7.044688327654419E-1
 1.245000000000000E+10  -6.115304981555789E-2    7.143950394513943E-1
 1.246000000000000E+10   2.832343130380515E-2    7.124866237344226E-1
 1.247000000000000E+10   1.183132421077612E-1    6.992021814918346E-1
 1.248000000000000E+10   2.075667088055901E-1    6.746620358851088E-1
 1.249000000000000E+10   2.942341829387324E-1    6.393551772504503E-1
 1.250000000000000E+10   3.759338946155784E-1    5.941426267632980E-1
