#  HZ   S   RI   R     50.00 
! Rohde & Schwarz Vector Network Analyzer 
! Rohde-Schwarz,ZNA43-4Port,1332450044101932,2.92
! Created: UTC 6/1/2026, 11:34:19 AM
! freq[Hz]                re:S11                  im:S11
 8.000000000000000E9     8.447384009451698E-1    4.815015559631033E-1
 8.010000000000000E9     8.935316562160259E-1    3.815132652313427E-1
 8.020000000000000E9     9.315148232494623E-1    2.700835557539131E-1
 8.030000000000000E9     9.563844102321878E-1    1.472032325220011E-1
 8.040000000000000E9     9.649713153896873E-1    1.366513303564338E-2
 8.050000000000000E9     9.540338784178605E-1   -1.284815726153557E-1
 8.060000000000000E9     9.202337358931602E-1   -2.761381944588509E-1
 8.070000000000000E9     8.602086425453400E-1   -4.250616350977826E-1
 8.080000000000000E9     7.708381650765209E-1   -5.695234821840646E-1
 8.090000000000000E9     6.502935249240293E-1   -7.024558236833587E-1
 8.100000000000000E9     4.977465068564037E-1   -8.151248655214998E-1
 8.110000000000000E9     3.156301709104550E-1   -8.980976796525044E-1
 8.120000000000000E9     1.102259389024478E-1   -9.419942766206604E-1
 8.130000000000000E9    -1.079100548052013E-1   -9.388700522793163E-1
 8.140000000000000E9    -3.250640021585062E-1   -8.851864219534822E-1
 8.150000000000000E9    -5.259958932924331E-1   -7.823225200497560E-1
 8.160000000000000E9    -6.967979326777300E-1   -6.369236184385092E-1
 8.170000000000000E9    -8.269975112573031E-1   -4.598537384124128E-1
 8.180000000000000E9    -9.110272906722520E-1   -2.638386040054546E-1
 8.190000000000000E9    -9.478458992969599E-1   -6.186123592775757E-2
 8.200000000000000E9    -9.408948082618901E-1    1.350990543550595E-1
 8.210000000000000E9    -8.961605123824886E-1    3.178348655372972E-1
 8.220000000000000E9    -8.215775155087268E-1    4.806128808146508E-1
 8.230000000000000E9    -7.246841891202094E-1    6.197034298664689E-1
 8.240000000000000E9    -6.127726683061975E-1    7.341915318830778E-1
 8.250000000000000E9    -4.922735900026688E-1    8.239217000595710E-1
 8.260000000000000E9    -3.674015369193667E-1    8.903598357297108E-1
 8.270000000000000E9    -2.413900871233294E-1    9.350969323510323E-1
 8.280000000000000E9    -1.165779046407180E-1    9.603686539277549E-1
 8.290000000000000E9     5.914411273578266E-3    9.680448557695619E-1
 8.300000000000000E9     1.248905401171586E-1    9.596131814361785E-1
 8.310000000000000E9     2.388917389860518E-1    9.370308512815874E-1
 8.320000000000000E9     3.471185248001946E-1    9.021331129177571E-1
 8.330000000000000E9     4.483873496671523E-1    8.566716770138912E-1
 8.340000000000000E9     5.417557158602873E-1    8.022657592758873E-1
 8.350000000000000E9     6.264794579238582E-1    7.400738102286355E-1
 8.360000000000000E9     7.023843348783056E-1    6.713023135014188E-1
 8.370000000000000E9     7.691536087010018E-1    5.962545072564804E-1
 8.380000000000000E9     8.263226518467602E-1    5.154470325099181E-1
 8.390000000000000E9     8.739612450190950E-1    4.290791121053704E-1
 8.400000000000000E9     9.121297487161039E-1    3.374958099335066E-1
 8.410000000000000E9     9.408079750073832E-1    2.414695256680522E-1
 8.420000000000000E9     9.597212817276497E-1    1.419163531326696E-1
 8.430000000000000E9     9.686943671405742E-1    3.986012217559279E-2
 8.440000000000000E9     9.676503939491132E-1   -6.306835985568529E-2
 8.450000000000000E9     9.564440751727062E-1   -1.654188001897869E-1
 8.460000000000000E9     9.344719050175490E-1   -2.658111702192435E-1
 8.470000000000000E9     9.017346175947601E-1   -3.636662156549471E-1
 8.480000000000000E9     8.578211406104268E-1   -4.578160314969115E-1
 8.490000000000000E9     8.025473390023015E-1   -5.477074437074081E-1
 8.500000000000000E9     7.358378717924181E-1   -6.326792779425939E-1
 8.510000000000000E9     6.570772036021090E-1   -7.110727731876335E-1
 8.520000000000000E9     5.672238891099972E-1   -7.822436858615728E-1
 8.530000000000000E9     4.677682574324014E-1   -8.439766976196644E-1
 8.540000000000000E9     3.601371641670225E-1   -8.949557265502844E-1
 8.550000000000000E9     2.460154389938138E-1   -9.334391523205026E-1
 8.560000000000000E9     1.273874906673624E-1   -9.577419870487826E-1
 8.570000000000000E9     6.087390207999161E-3   -9.668581019310628E-1
 8.580000000000000E9    -1.163836458239403E-1   -9.598085238976662E-1
 8.590000000000000E9    -2.380695931618988E-1   -9.359523089779522E-1
 8.600000000000000E9    -3.573707261702613E-1   -8.949781172916392E-1
 8.610000000000000E9    -4.723477868174245E-1   -8.372690504741690E-1
 8.620000000000000E9    -5.804696866273754E-1   -7.636989537324164E-1
 8.630000000000000E9    -6.792400181553181E-1   -6.756056241969868E-1
 8.640000000000000E9    -7.663992263357498E-1   -5.750000069754325E-1
 8.650000000000000E9    -8.394635396141413E-1   -4.639903426450633E-1
 8.660000000000000E9    -8.966022603586110E-1   -3.449183759900070E-1
 8.670000000000000E9    -9.364905187341569E-1   -2.201551346744078E-1
 8.680000000000000E9    -9.581309828875368E-1   -9.199473539420115E-2
 8.690000000000000E9    -9.613968020964516E-1    3.747165328485358E-2
 8.700000000000000E9    -9.463537305103640E-1    1.663989050828796E-1
 8.710000000000000E9    -9.137146868996486E-1    2.924739998514387E-1
 8.720000000000000E9    -8.644222777799269E-1    4.132876882438152E-1
 8.730000000000000E9    -8.002383955090553E-1    5.264001737903451E-1
 8.740000000000000E9    -7.230007688713328E-1    6.294171085979986E-1
 8.750000000000000E9    -6.344838090978916E-1    7.205297661660328E-1
 8.760000000000000E9    -5.367325461691973E-1    7.982270402907142E-1
 8.770000000000000E9    -4.315255547790751E-1    8.613785535143942E-1
 8.780000000000000E9    -3.198811907420835E-1    9.095603493822819E-1
 8.790000000000000E9    -2.031680378947963E-1    9.421431587894519E-1
 8.800000000000000E9    -8.319264503883261E-2    9.592619383273538E-1
 8.810000000000000E9     3.871314365786657E-2    9.606787732689793E-1
 8.820000000000000E9     1.604867478054399E-1    9.470150437325849E-1
 8.830000000000000E9     2.801905820584800E-1    9.186563109347089E-1
 8.840000000000000E9     3.953900507092183E-1    8.758879229830717E-1
 8.850000000000000E9     5.041075352990037E-1    8.195586279761400E-1
 8.860000000000000E9     6.040350251590220E-1    7.502759873919228E-1
 8.870000000000000E9     6.940521653791842E-1    6.689746302664782E-1
 8.880000000000000E9     7.725320843968464E-1    5.765303094807503E-1
 8.890000000000000E9     8.383260763135946E-1    4.731868987593089E-1
 8.900000000000000E9     8.908130423736659E-1    3.603834622889757E-1
 8.910000000000000E9     9.286717285501074E-1    2.395602265475255E-1
 8.920000000000000E9     9.507285625048350E-1    1.122770280020242E-1
 8.930000000000000E9     9.563239848556152E-1   -1.912015611746892E-2
 8.940000000000000E9     9.443275144519135E-1   -1.516498052765163E-1
 8.950000000000000E9     9.142522669331961E-1   -2.820976492800468E-1
 8.960000000000000E9     8.660305987263754E-1   -4.077184977260335E-1
 8.970000000000000E9     7.998119009178691E-1   -5.254069984827516E-1
 8.980000000000000E9     7.162732574548043E-1   -6.329702410923325E-1
 8.990000000000000E9     6.167032988586786E-1   -7.281349872612980E-1
 9.000000000000000E9     5.023444465953412E-1   -8.083772348714710E-1
 9.010000000000000E9     3.755616595653251E-1   -8.721321920911835E-1
 9.020000000000000E9     2.391513176349072E-1   -9.174807078978091E-1
 9.030000000000000E9     9.680656611888526E-2   -9.426439668766873E-1
 9.040000000000000E9    -4.719445782865467E-2   -9.467012609143689E-1
 9.050000000000000E9    -1.892019297041339E-1   -9.297443003520149E-1
 9.060000000000000E9    -3.250080986997054E-1   -8.924250243156477E-1
 9.070000000000000E9    -4.518577762651138E-1   -8.357777230034992E-1
 9.080000000000000E9    -5.669958242006453E-1   -7.618555555298756E-1
 9.090000000000000E9    -6.686971182247246E-1   -6.728765531941150E-1
 9.100000000000000E9    -7.561077420316252E-1   -5.712975185275230E-1
 9.110000000000000E9    -8.279014601714971E-1   -4.597769203703142E-1
 9.120000000000000E9    -8.834995501630939E-1   -3.412689400608893E-1
 9.130000000000000E9    -9.225498260987702E-1   -2.187710572149319E-1
 9.140000000000000E9    -9.450205368951221E-1   -9.539546513888428E-2
 9.150000000000000E9    -9.515073630072342E-1    2.613746307660185E-2
 9.160000000000000E9    -9.428149830758391E-1    1.431811183031705E-1
 9.170000000000000E9    -9.203491257239070E-1    2.543376672030374E-1
 9.180000000000000E9    -8.854663725801095E-1    3.585134531960368E-1
 9.190000000000000E9    -8.400235003614870E-1    4.550596555088470E-1
 9.200000000000000E9    -7.854997461736347E-1    5.439011661974478E-1
 9.210000000000000E9    -7.231614223049241E-1    6.251384027539709E-1
 9.220000000000000E9    -6.539015239897350E-1    6.984163579414031E-1
 9.230000000000000E9    -5.794118035207766E-1    7.631035802076528E-1
 9.240000000000000E9    -5.002930704319568E-1    8.192172538515052E-1
 9.250000000000000E9    -4.179230291433669E-1    8.662591365667852E-1
 9.260000000000000E9    -3.338215028110123E-1    9.037708909795632E-1
 9.270000000000000E9    -2.486890737455125E-1    9.320624105394886E-1
 9.280000000000000E9    -1.633870075748630E-1    9.514388463037775E-1
 9.290000000000000E9    -7.841502875096669E-2    9.623916070687322E-1
 9.300000000000000E9     5.828237974380139E-3    9.655896218781674E-1
 9.310000000000000E9     8.930877162858140E-2    9.615348456884574E-1
 9.320000000000000E9     1.716529218512336E-1    9.506845080304518E-1
 9.330000000000000E9     2.526683179029862E-1    9.333575952601323E-1
 9.340000000000000E9     3.318455921998792E-1    9.095964894105542E-1
 9.350000000000000E9     4.085536866141931E-1    8.795480982876015E-1
 9.360000000000000E9     4.821457708376902E-1    8.429603458263913E-1
 9.370000000000000E9     5.519099247662824E-1    8.004599814230732E-1
 9.380000000000000E9     6.172712248542200E-1    7.520489570804147E-1
 9.390000000000000E9     6.778328194629328E-1    6.981087812427009E-1
 9.400000000000000E9     7.336403741120739E-1    6.390962732256436E-1
 9.410000000000000E9     7.843317050847939E-1    5.751803960073412E-1
 9.420000000000000E9     8.301762238336505E-1    5.066450479894732E-1
 9.430000000000000E9     8.709502256708466E-1    4.332537221680127E-1
 9.440000000000000E9     9.060069642213839E-1    3.549847267597351E-1
 9.450000000000000E9     9.346371025140950E-1    2.718219980029036E-1
 9.460000000000000E9     9.558423372064558E-1    1.840627178440923E-1
 9.470000000000000E9     9.689347551109514E-1    9.162222929607963E-2
 9.480000000000000E9     9.724958152799108E-1   -4.279525080312730E-3
 9.490000000000000E9     9.655231437778224E-1   -1.031312946885717E-1
 9.500000000000000E9     9.474637926755891E-1   -2.041544433639417E-1
 9.510000000000000E9     9.158370439436571E-1   -3.064722570798746E-1
 9.520000000000000E9     8.674820166718722E-1   -4.089921317002893E-1
 9.530000000000000E9     7.953021036086967E-1   -5.057714658774215E-1
 9.540000000000000E9     6.977224701687209E-1   -5.621586681366326E-1
 9.550000000000000E9     6.699178108478490E-1   -5.942256989330602E-1
 9.560000000000000E9     6.187922426019588E-1   -6.993761434066081E-1
 9.570000000000000E9     5.193264389991816E-1   -7.918204923468527E-1
 9.580000000000000E9     3.979511850089857E-1   -8.628178557405892E-1
 9.590000000000000E9     2.618657557675286E-1   -9.126845506977180E-1
 9.600000000000000E9     1.143998033954250E-1   -9.401340015353595E-1
 9.610000000000000E9    -4.044869330678515E-2   -9.432544123258889E-1
 9.620000000000000E9    -1.979222659242001E-1   -9.199496050251093E-1
 9.630000000000000E9    -3.532773497017316E-1   -8.689785978948056E-1
 9.640000000000000E9    -5.004310552800989E-1   -7.901794940869017E-1
 9.650000000000000E9    -6.334503172504110E-1   -6.840978831443387E-1
 9.660000000000000E9    -7.456671400357474E-1   -5.536019177703003E-1
 9.670000000000000E9    -8.320066856456684E-1   -4.038035616797961E-1
 9.680000000000000E9    -8.886286064822028E-1   -2.411296541699555E-1
 9.690000000000000E9    -9.142808384227357E-1   -7.294658989090588E-2
 9.700000000000000E9    -9.094877352376589E-1    9.356565469528846E-2
 9.710000000000000E9    -8.769607035789978E-1    2.519066425137573E-1
 9.720000000000000E9    -8.204136718818399E-1    3.974387380372332E-1
 9.730000000000000E9    -7.439363681018125E-1    5.263682555848566E-1
 9.740000000000000E9    -6.519230518992472E-1    6.368250181329134E-1
 9.750000000000000E9    -5.483990646696960E-1    7.277069577014381E-1
 9.760000000000000E9    -4.373806195621587E-1    7.991128455239038E-1
 9.770000000000000E9    -3.223658354396909E-1    8.516329380752874E-1
 9.780000000000000E9    -2.068342678397036E-1    8.863521229154695E-1
 9.790000000000000E9    -9.340815662407513E-2    9.053300615338323E-1
 9.800000000000000E9     1.574464322355922E-2    9.105260358902830E-1
 9.810000000000000E9     1.193273615680331E-1    9.038660653665544E-1
 9.820000000000000E9     2.162554293054550E-1    8.871695277749663E-1
 9.830000000000000E9     3.068232069368393E-1    8.615579068216336E-1
 9.840000000000000E9     3.906877761991757E-1    8.281424406107115E-1
 9.850000000000000E9     4.679574360688694E-1    7.876865927013852E-1
 9.860000000000000E9     5.386007163822620E-1    7.408034047565616E-1
 9.870000000000000E9     6.026843675598963E-1    6.885384854166389E-1
 9.880000000000000E9     6.604589489719855E-1    6.320733719018133E-1
 9.890000000000000E9     7.119014725097726E-1    5.725417289925929E-1
 9.900000000000000E9     7.571263525640017E-1    5.109800756371066E-1
 9.910000000000000E9     7.963918203612024E-1    4.482265513368782E-1
 9.920000000000000E9     8.299281026006199E-1    3.848031836721095E-1
 9.930000000000000E9     8.577856711030531E-1    3.210792165843930E-1
 9.940000000000000E9     8.801196551767086E-1    2.568494247647191E-1
 9.950000000000000E9     8.969419493192851E-1    1.920822790976225E-1
 9.960000000000000E9     9.082810548147090E-1    1.265894585887773E-1
 9.970000000000000E9     9.142885014724507E-1    6.028709369801957E-2
 9.980000000000000E9     9.151243186684193E-1   -6.683225083313270E-3
 9.990000000000000E9     9.109806006051691E-1   -7.382665541311574E-2
 1.000000000000000E+10   9.025680584674726E-1   -1.404726488174803E-1
 1.001000000000000E+10   8.899787398233167E-1   -2.062927873961555E-1
 1.002000000000000E+10   8.734365278408078E-1   -2.706476490836537E-1
 1.003000000000000E+10   8.530548131213253E-1   -3.330315798146967E-1
 1.004000000000000E+10   8.285827397184821E-1   -3.936156445166538E-1
 1.005000000000000E+10   7.997875098795846E-1   -4.522938681230536E-1
 1.006000000000000E+10   7.659449383892920E-1   -5.092988614257525E-1
 1.007000000000000E+10   7.267596601691023E-1   -5.644795560546144E-1
 1.008000000000000E+10   6.815361171189595E-1   -6.179368042677620E-1
 1.009000000000000E+10   6.304162121336746E-1   -6.695275048531047E-1
 1.010000000000000E+10   5.736045502981256E-1   -7.185552929725902E-1
 1.011000000000000E+10   5.113118446034439E-1   -7.643971204277387E-1
 1.012000000000000E+10   4.447768556533532E-1   -8.064944256632639E-1
 1.013000000000000E+10   3.739740440583537E-1   -8.438873267684919E-1
 1.014000000000000E+10   2.992746113660288E-1   -8.756843857128903E-1
 1.015000000000000E+10   2.209815631503101E-1   -9.012241997325683E-1
 1.016000000000000E+10   1.383756612410865E-1   -9.195657440940922E-1
 1.017000000000000E+10   5.119449397379797E-2   -9.297007185470718E-1
 1.018000000000000E+10  -4.060806145675602E-2   -9.303780470784777E-1
 1.019000000000000E+10  -1.368064280566617E-1   -9.208578193346694E-1
 1.020000000000000E+10  -2.368108329302759E-1   -8.998917339756248E-1
 1.021000000000000E+10  -3.388501116705847E-1   -8.666597093441556E-1
 1.022000000000000E+10  -4.407638082894583E-1   -8.203672959112606E-1
 1.023000000000000E+10  -5.398348506536508E-1   -7.610542354825509E-1
 1.024000000000000E+10  -6.337651362287554E-1   -6.885514499835050E-1
 1.025000000000000E+10  -7.193506843320867E-1   -6.027595942190308E-1
 1.026000000000000E+10  -7.945794295276329E-1   -5.038421658959886E-1
 1.027000000000000E+10  -8.569391395967020E-1   -3.920264271393157E-1
 1.028000000000000E+10  -9.039655143458710E-1   -2.676816446328820E-1
 1.029000000000000E+10  -9.328111201053694E-1   -1.320574344571151E-1
 1.030000000000000E+10  -9.415022499591588E-1    1.229923392935124E-2
 1.031000000000000E+10  -9.277641561072515E-1    1.612701647652794E-1
 1.032000000000000E+10  -8.907057940140777E-1    3.098169842897507E-1
 1.033000000000000E+10  -8.306948633802423E-1    4.523233968922792E-1
 1.034000000000000E+10  -7.491730203770759E-1    5.835177196527135E-1
 1.035000000000000E+10  -6.483116812065568E-1    6.989114231751662E-1
 1.036000000000000E+10  -5.316260133230657E-1    7.951941454718605E-1
 1.037000000000000E+10  -4.017840367884743E-1    8.702088965962197E-1
 1.038000000000000E+10  -2.628611164680812E-1    9.225933500415071E-1
 1.039000000000000E+10  -1.184149119420953E-1    9.520211845986022E-1
 1.040000000000000E+10   2.728532174272240E-2    9.593257755977871E-1
 1.041000000000000E+10   1.701347119037100E-1    9.455845630123334E-1
 1.042000000000000E+10   3.063108057949032E-1    9.126852361560599E-1
 1.043000000000000E+10   4.321758724137901E-1    8.631268889773828E-1
 1.044000000000000E+10   5.457243467138591E-1    7.995281182188216E-1
 1.045000000000000E+10   6.451723796157686E-1    7.248300672844470E-1
 1.046000000000000E+10   7.303553599972580E-1    6.404826903451870E-1
 1.047000000000000E+10   8.014191932777485E-1    5.491485353901564E-1
 1.048000000000000E+10   8.593757143497532E-1    4.522942565402249E-1
 1.049000000000000E+10   9.042228342279046E-1    3.509423086280093E-1
 1.050000000000000E+10   9.372117501136731E-1    2.472422775886753E-1
 1.051000000000000E+10   9.587064116437480E-1    1.430447915400404E-1
 1.052000000000000E+10   9.692037152861945E-1    3.988828183184476E-2
 1.053000000000000E+10   9.696669354653416E-1   -6.045554091064390E-2
 1.054000000000000E+10   9.605679979493594E-1   -1.565465441338407E-1
 1.055000000000000E+10   9.424266568558042E-1   -2.477403215069708E-1
 1.056000000000000E+10   9.160858653295654E-1   -3.338284152035016E-1
 1.057000000000000E+10   8.812642704507129E-1   -4.150318321262174E-1
 1.058000000000000E+10   8.389616017552045E-1   -4.914074969137521E-1
 1.059000000000000E+10   7.898463727945867E-1   -5.635009142936483E-1
 1.060000000000000E+10   7.342019182285194E-1   -6.310946441140898E-1
 1.061000000000000E+10   6.730104954450582E-1   -6.941742538682402E-1
 1.062000000000000E+10   6.071937697610218E-1   -7.520341554299883E-1
 1.063000000000000E+10   5.380438663514461E-1   -8.037810631409955E-1
 1.064000000000000E+10   4.660172330373727E-1   -8.491090498350973E-1
 1.065000000000000E+10   3.919558822406523E-1   -8.868559941360120E-1
 1.066000000000000E+10   3.161824694983444E-1   -9.171877878611290E-1
 1.067000000000000E+10   2.390860220703594E-1   -9.397024601344725E-1
 1.068000000000000E+10   1.601073696595603E-1   -9.546606604745290E-1
 1.069000000000000E+10   7.911481644103452E-2   -9.622741174393340E-1
 1.070000000000000E+10  -3.929047991532600E-3   -9.626998135122029E-1
 1.071000000000000E+10  -8.898019099942903E-2   -9.557836232642459E-1
 1.072000000000000E+10  -1.746814456926646E-1   -9.419707773311308E-1
 1.073000000000000E+10  -2.602226749993365E-1   -9.210076856394279E-1
 1.074000000000000E+10  -3.439051720095628E-1   -8.931886084311466E-1
 1.075000000000000E+10  -4.243866929796640E-1   -8.583463042667762E-1
 1.076000000000000E+10  -5.007403410815627E-1   -8.164239755959477E-1
 1.077000000000000E+10  -5.721681260972510E-1   -7.675530169160734E-1
 1.078000000000000E+10  -6.385794333757511E-1   -7.116089926897043E-1
 1.079000000000000E+10  -6.993463247575488E-1   -6.485262737068234E-1
 1.080000000000000E+10  -7.547448714023427E-1   -5.781749565708333E-1
 1.081000000000000E+10  -8.044883943938169E-1   -5.006024781888114E-1
 1.082000000000000E+10  -8.482349961983701E-1   -4.163954801142560E-1
 1.083000000000000E+10  -8.847603559774025E-1   -3.262964335598969E-1
 1.084000000000000E+10  -9.132548126082176E-1   -2.316022502853352E-1
 1.085000000000000E+10  -9.326510491565922E-1   -1.337307970344988E-1
 1.086000000000000E+10  -9.417056584937032E-1   -3.429617772627865E-2
 1.087000000000000E+10  -9.399376492134457E-1    6.529111234447507E-2
 1.088000000000000E+10  -9.270519744205328E-1    1.643904815593041E-1
 1.089000000000000E+10  -9.024643404775025E-1    2.620370707085311E-1
 1.090000000000000E+10  -8.665585965742618E-1    3.576776421757112E-1
 1.091000000000000E+10  -8.195330186257792E-1    4.505230245439327E-1
 1.092000000000000E+10  -7.613277575154058E-1    5.400553201040946E-1
 1.093000000000000E+10  -6.920334765651491E-1    6.245692290071139E-1
 1.094000000000000E+10  -6.129972180124302E-1    7.023272934256993E-1
 1.095000000000000E+10  -5.250451667897345E-1    7.710686488176323E-1
 1.096000000000000E+10  -4.298017014274130E-1    8.294609000833614E-1
 1.097000000000000E+10  -3.288210557891640E-1    8.755613008956095E-1
 1.098000000000000E+10  -2.236759670698088E-1    9.087761462948706E-1
 1.099000000000000E+10  -1.156525977824194E-1    9.289422172813447E-1
 1.100000000000000E+10  -5.896610609113718E-3    9.356873281067303E-1
 1.101000000000000E+10   1.046416217632130E-1    9.294603973286536E-1
 1.102000000000000E+10   2.152297652492839E-1    9.101724847939939E-1
 1.103000000000000E+10   3.241900291690886E-1    8.782186583635428E-1
 1.104000000000000E+10   4.294842986768637E-1    8.337410897066369E-1
 1.105000000000000E+10   5.289396269586402E-1    7.773918285604080E-1
 1.106000000000000E+10   6.204106841973428E-1    7.103292913822445E-1
 1.107000000000000E+10   7.020144712579923E-1    6.336814118408939E-1
 1.108000000000000E+10   7.728823792236356E-1    5.488131400921222E-1
 1.109000000000000E+10   8.320182923744535E-1    4.573970820787549E-1
 1.110000000000000E+10   8.794314004701139E-1    3.605529202491640E-1
 1.111000000000000E+10   9.152010153506029E-1    2.596101826483619E-1
 1.112000000000000E+10   9.396817215198531E-1    1.552376627813361E-1
 1.113000000000000E+10   9.528109139674725E-1    4.882899493029944E-2
 1.114000000000000E+10   9.544856618842816E-1   -5.883762873536810E-2
 1.115000000000000E+10   9.444603128418954E-1   -1.657371292569695E-1
 1.116000000000000E+10   9.226722581104564E-1   -2.705762534559528E-1
 1.117000000000000E+10   8.891897103866918E-1   -3.715214678648693E-1
 1.118000000000000E+10   8.451834046632194E-1   -4.667040987894689E-1
 1.119000000000000E+10   7.911009726295563E-1   -5.551785911290118E-1
 1.120000000000000E+10   7.280330430269917E-1   -6.368919670538107E-1
 1.121000000000000E+10   6.566070689976030E-1   -7.110634852612587E-1
 1.122000000000000E+10   5.778951853196878E-1   -7.772170507772468E-1
 1.123000000000000E+10   4.924931144901459E-1   -8.350833994281578E-1
 1.124000000000000E+10   4.009039583503187E-1   -8.841484024984723E-1
 1.125000000000000E+10   3.047312482361279E-1   -9.233660502365009E-1
 1.126000000000000E+10   2.047060864062973E-1   -9.518662905419609E-1
 1.127000000000000E+10   1.022691264466532E-1   -9.691613518810261E-1
 1.128000000000000E+10  -1.053114598201125E-3   -9.751104211138935E-1
 1.129000000000000E+10  -1.037239484948850E-1   -9.692739385323269E-1
 1.130000000000000E+10  -2.052963223982011E-1   -9.521931731769168E-1
 1.131000000000000E+10  -3.044954014859082E-1   -9.238227028293595E-1
 1.132000000000000E+10  -4.005899261489719E-1   -8.854128073773763E-1
 1.133000000000000E+10  -4.925225253393088E-1   -8.370057653813729E-1
 1.134000000000000E+10  -5.793578466630709E-1   -7.788913032449948E-1
 1.135000000000000E+10  -6.603741560480452E-1   -7.112768899713657E-1
 1.136000000000000E+10  -7.337013880716868E-1   -6.349677375242097E-1
 1.137000000000000E+10  -7.980867475696276E-1   -5.504671924000315E-1
 1.138000000000000E+10  -8.522951312517024E-1   -4.587102306582759E-1
 1.139000000000000E+10  -8.957510651204645E-1   -3.617004355365750E-1
 1.140000000000000E+10  -9.277209909727075E-1   -2.604843715444423E-1
 1.141000000000000E+10  -9.483582765677208E-1   -1.564854952337487E-1
 1.142000000000000E+10  -9.575705686899012E-1   -5.087904314316881E-2
 1.143000000000000E+10  -9.556345135293004E-1    5.506825508594388E-2
 1.144000000000000E+10  -9.426523149319398E-1    1.604750689350131E-1
 1.145000000000000E+10  -9.183700863158533E-1    2.638989936488413E-1
 1.146000000000000E+10  -8.824486677506214E-1    3.641562765255803E-1
 1.147000000000000E+10  -8.354396724864528E-1    4.595758461407708E-1
 1.148000000000000E+10  -7.777128044980512E-1    5.485566855830053E-1
 1.149000000000000E+10  -7.103641107789512E-1    6.304163936743401E-1
 1.150000000000000E+10  -6.343221911165653E-1    7.035484812667312E-1
 1.151000000000000E+10  -5.513822393027533E-1    7.676507582385034E-1
 1.152000000000000E+10  -4.624465504571789E-1    8.222652455106596E-1
 1.153000000000000E+10  -3.685473943784530E-1    8.670865632984612E-1
 1.154000000000000E+10  -2.710539765584308E-1    9.017553118613755E-1
 1.155000000000000E+10  -1.709067751677212E-1    9.258467786289810E-1
 1.156000000000000E+10  -6.899856886946426E-2    9.391004887068957E-1
 1.157000000000000E+10   3.331347717661664E-2    9.409463008734795E-1
 1.158000000000000E+10   1.347624980466376E-1    9.316060505003033E-1
 1.159000000000000E+10   2.341566158836244E-1    9.109416691814485E-1
 1.160000000000000E+10   3.297413438970186E-1    8.799450017126561E-1
 1.161000000000000E+10   4.205099108225819E-1    8.395071863002973E-1
 1.162000000000000E+10   5.057411663162454E-1    7.907030974474647E-1
 1.163000000000000E+10   5.847768481994496E-1    7.343951385838464E-1
 1.164000000000000E+10   6.569680090737997E-1    6.716161325943599E-1
 1.165000000000000E+10   7.218093392086473E-1    6.027122453303363E-1
 1.166000000000000E+10   7.789561576414543E-1    5.281691951891589E-1
 1.167000000000000E+10   8.275531470405675E-1    4.484527104662344E-1
 1.168000000000000E+10   8.673520583327871E-1    3.641412815830472E-1
 1.169000000000000E+10   8.983599971513723E-1    2.763241606736384E-1
 1.170000000000000E+10   9.201516160480934E-1    1.861817012775119E-1
 1.171000000000000E+10   9.334318620327212E-1    9.462096992743181E-2
 1.172000000000000E+10   9.380899474153992E-1    3.018897721816247E-3
 1.173000000000000E+10   9.347062292657194E-1   -8.745587463033985E-2
 1.174000000000000E+10   9.233800836126391E-1   -1.759276727434660E-1
 1.175000000000000E+10   9.042171659840641E-1   -2.619608560042754E-1
 1.176000000000000E+10   8.773068357159199E-1   -3.445425474128943E-1
 1.177000000000000E+10   8.430137236569918E-1   -4.233689569246797E-1
 1.178000000000000E+10   8.012468477673986E-1   -4.983851942904255E-1
 1.179000000000000E+10   7.519642667976795E-1   -5.691912597352722E-1
 1.180000000000000E+10   6.959689500005009E-1   -6.352755703633451E-1
 1.181000000000000E+10   6.335556266606994E-1   -6.964307760264656E-1
 1.182000000000000E+10   5.655328015021015E-1   -7.519247206974575E-1
 1.183000000000000E+10   4.932463560418726E-1   -8.017001153275890E-1
 1.184000000000000E+10   4.170604983745601E-1   -8.451690502835555E-1
 1.185000000000000E+10   3.376884953852169E-1   -8.816513773824225E-1
 1.186000000000000E+10   2.557408198144220E-1   -9.110050779043866E-1
 1.187000000000000E+10   1.713421231060820E-1   -9.323541569751148E-1
 1.188000000000000E+10   8.493060245183329E-2   -9.453672753646033E-1
 1.189000000000000E+10  -3.006688430611255E-3   -9.495082727012608E-1
 1.190000000000000E+10  -9.190251681796897E-2   -9.447889393033935E-1
 1.191000000000000E+10  -1.810279378066297E-1   -9.313809496924090E-1
 1.192000000000000E+10  -2.699168358947385E-1   -9.094323439616804E-1
 1.193000000000000E+10  -3.571949234959246E-1   -8.790301486770759E-1
 1.194000000000000E+10  -4.419693738618720E-1   -8.410458470071427E-1
 1.195000000000000E+10  -5.231119303008670E-1   -7.950378599174193E-1
 1.196000000000000E+10  -6.000234636889277E-1   -7.414799929355017E-1
 1.197000000000000E+10  -6.715061085265013E-1   -6.794904451586808E-1
 1.198000000000000E+10  -7.367639554545591E-1   -6.099995383940641E-1
 1.199000000000000E+10  -7.948987293580648E-1   -5.322570687354661E-1
 1.200000000000000E+10  -8.455214602887945E-1   -4.467852853979996E-1
 1.201000000000000E+10  -8.871507642598198E-1   -3.542939363001715E-1
 1.202000000000000E+10  -9.196236024699551E-1   -2.550700859076019E-1
 1.203000000000000E+10  -9.418790622050230E-1   -1.513271953082447E-1
 1.204000000000000E+10  -9.531963356971233E-1   -4.451621309732712E-2
 1.205000000000000E+10  -9.529152968712228E-1    6.342716532019781E-2
 1.206000000000000E+10  -9.406447686832191E-1    1.710913199982317E-1
 1.207000000000000E+10  -9.162835495086574E-1    2.770031191817380E-1
 1.208000000000000E+10  -8.789265496703426E-1    3.798248279830777E-1
 1.209000000000000E+10  -8.283934630068410E-1    4.784761506436100E-1
 1.210000000000000E+10  -7.651403963277049E-1    5.712736702340365E-1
 1.211000000000000E+10  -6.894918208196444E-1    6.568224623344788E-1
 1.212000000000000E+10  -6.027585150238364E-1    7.341783064353324E-1
 1.213000000000000E+10  -5.064304970282661E-1    8.013294494447124E-1
 1.214000000000000E+10  -4.029459125083761E-1    8.570384597723933E-1
 1.215000000000000E+10  -2.932614187856584E-1    9.000269426527223E-1
 1.216000000000000E+10  -1.800664438079862E-1    9.293322953830110E-1
 1.217000000000000E+10  -6.509185242424677E-2    9.438429313610393E-1
 1.218000000000000E+10   5.009662163765671E-2    9.434819297142172E-1
 1.219000000000000E+10   1.638551463999981E-1    9.277407471924086E-1
 1.220000000000000E+10   2.747860355983559E-1    8.972864114123380E-1
 1.221000000000000E+10   3.813364966072988E-1    8.530346867819676E-1
 1.222000000000000E+10   4.816218294065827E-1    7.959482599097584E-1
 1.223000000000000E+10   5.746329315761647E-1    7.280245440963419E-1
 1.224000000000000E+10   6.586237494362696E-1    6.506416753288036E-1
 1.225000000000000E+10   7.318984049828782E-1    5.660415886730921E-1
 1.226000000000000E+10   7.933141856404300E-1    4.758331456143558E-1
 1.227000000000000E+10   8.428529727405110E-1    3.815406022630092E-1
 1.228000000000000E+10   8.796776202522977E-1    2.840941025261114E-1
 1.229000000000000E+10   9.038385278160759E-1    1.843814746445263E-1
 1.230000000000000E+10   9.160169991582064E-1    8.340023987658467E-2
 1.231000000000000E+10   9.163162464139261E-1   -1.814308282989171E-2
 1.232000000000000E+10   9.053922950739682E-1   -1.188928963363459E-1
 1.233000000000000E+10   8.842721309460583E-1   -2.176345245326421E-1
 1.234000000000000E+10   8.538858541984379E-1   -3.125538514935755E-1
 1.235000000000000E+10   8.152125278121891E-1   -4.024371468887514E-1
 1.236000000000000E+10   7.691095606126793E-1   -4.856656886586876E-1
 1.237000000000000E+10   7.168335703294686E-1   -5.616527068974297E-1
 1.238000000000000E+10   6.582996975875453E-1   -6.296835361761518E-1
 1.239000000000000E+10   5.944254936120459E-1   -6.898604880649951E-1
 1.240000000000000E+10   5.253355055661566E-1   -7.420688444641855E-1
 1.241000000000000E+10   4.514269719184508E-1   -7.867846704073547E-1
 1.242000000000000E+10   3.732303501817065E-1   -8.245041972578658E-1
 1.243000000000000E+10   2.918571462003197E-1   -8.552732789661430E-1
 1.244000000000000E+10   2.084698335505017E-1   -8.786445880946723E-1
 1.245000000000000E+10   1.242386340147931E-1   -8.950229798900372E-1
 1.246000000000000E+10   4.024838028656091E-2   -9.042866302328254E-1
 1.247000000000000E+10  -4.220856007725846E-2   -9.058898002528341E-1
 1.248000000000000E+10  -1.226672277466626E-1   -9.001032169361204E-1
 1.249000000000000E+10  -2.009837406760811E-1   -8.868907945825240E-1
 1.250000000000000E+10  -2.769318651835568E-1   -8.662130272061722E-1
