#  HZ   S   RI   R     50.00 
! Rohde & Schwarz Vector Network Analyzer 
! Rohde-Schwarz,ZNA43-4Port,1332450044101932,2.92
! Created: UTC 6/1/2026, 11:35:20 AM
! freq[Hz]                re:S11                  im:S11
 8.000000000000000E9    -7.280310200575517E-1   -6.052128297780920E-1
 8.010000000000000E9    -8.460408925701852E-1   -4.291848932740329E-1
 8.020000000000000E9    -9.199870174301348E-1   -2.441933547247096E-1
 8.030000000000000E9    -9.536937762235468E-1   -6.160624606477118E-2
 8.040000000000000E9    -9.530206639473036E-1    1.110277781377788E-1
 8.050000000000000E9    -9.242371562761595E-1    2.692161947529575E-1
 8.060000000000000E9    -8.724667120701988E-1    4.105620436827207E-1
 8.070000000000000E9    -8.035551319892766E-1    5.343194331104307E-1
 8.080000000000000E9    -7.221809453741322E-1    6.404826402115491E-1
 8.090000000000000E9    -6.317708405151337E-1    7.298473336647574E-1
 8.100000000000000E9    -5.359103854598649E-1    8.037107351684781E-1
 8.110000000000000E9    -4.375912984694512E-1    8.631219239923323E-1
 8.120000000000000E9    -3.386605450272794E-1    9.086945980161191E-1
 8.130000000000000E9    -2.402434768211861E-1    9.418403260601645E-1
 8.140000000000000E9    -1.434735504730407E-1    9.634951243769821E-1
 8.150000000000000E9    -4.841655665696628E-2    9.744423145648026E-1
 8.160000000000000E9     4.421919766150129E-2    9.751346719839808E-1
 8.170000000000000E9     1.347118208006889E-1    9.664723407527812E-1
 8.180000000000000E9     2.225996503774005E-1    9.491082759036952E-1
 8.190000000000000E9     3.077179924601531E-1    9.243291699182180E-1
 8.200000000000000E9     3.893745617236906E-1    8.922810100088692E-1
 8.210000000000000E9     4.671786478773263E-1    8.545781793970832E-1
 8.220000000000000E9     5.406797029242624E-1    8.111889062162657E-1
 8.230000000000000E9     6.091355384051639E-1    7.627915082145065E-1
 8.240000000000000E9     6.724701039224718E-1    7.091813394514546E-1
 8.250000000000000E9     7.303799674809064E-1    6.510080944290584E-1
 8.260000000000000E9     7.826186179394121E-1    5.875879388058260E-1
 8.270000000000000E9     8.289891834205252E-1    5.189504881507684E-1
 8.280000000000000E9     8.695285226096973E-1    4.450417251466192E-1
 8.290000000000000E9     9.039612241572497E-1    3.657683498178643E-1
 8.300000000000000E9     9.314161426836153E-1    2.821821251844919E-1
 8.310000000000000E9     9.510206147192116E-1    1.947062393288717E-1
 8.320000000000000E9     9.583326930309201E-1    1.053942352561795E-1
 8.330000000000000E9     9.594260235750313E-1    3.065988380586506E-2
 8.340000000000000E9     9.691330375292877E-1   -5.472949830209350E-2
 8.350000000000000E9     9.636761716393990E-1   -1.459635465277214E-1
 8.360000000000000E9     9.467094179226624E-1   -2.364751185674945E-1
 8.370000000000000E9     9.193388388844980E-1   -3.259509133014153E-1
 8.380000000000000E9     8.817516448222913E-1   -4.139908052986726E-1
 8.390000000000000E9     8.340060322659439E-1   -5.000359035007319E-1
 8.400000000000000E9     7.759541908530995E-1   -5.832443903711356E-1
 8.410000000000000E9     7.082397890499981E-1   -6.624139674013126E-1
 8.420000000000000E9     6.314101508806960E-1   -7.357159257867456E-1
 8.430000000000000E9     5.461353837665139E-1   -8.015273961773031E-1
 8.440000000000000E9     4.532811562556751E-1   -8.584091693577866E-1
 8.450000000000000E9     3.537158709974821E-1   -9.048000646548312E-1
 8.460000000000000E9     2.479440223216949E-1   -9.391956138681091E-1
 8.470000000000000E9     1.364162266304759E-1   -9.607527690187088E-1
 8.480000000000000E9     2.024119716695515E-2   -9.683834788437143E-1
 8.490000000000000E9    -9.943661853656960E-2   -9.612732781525982E-1
 8.500000000000000E9    -2.206775791124423E-1   -9.389146039563190E-1
 8.510000000000000E9    -3.404529605321821E-1   -9.005633256335447E-1
 8.520000000000000E9    -4.564106612888937E-1   -8.470813346869650E-1
 8.530000000000000E9    -5.652692934357407E-1   -7.792210340725069E-1
 8.540000000000000E9    -6.645133078730090E-1   -6.981056678786515E-1
 8.550000000000000E9    -7.518066556017199E-1   -6.049688596158290E-1
 8.560000000000000E9    -8.252061752162843E-1   -5.012277343255158E-1
 8.570000000000000E9    -8.834623548170891E-1   -3.883590863528348E-1
 8.580000000000000E9    -9.257629260616994E-1   -2.680959896287254E-1
 8.590000000000000E9    -9.514279343772227E-1   -1.423783205973438E-1
 8.600000000000000E9    -9.602742920873593E-1   -1.361321947127163E-2
 8.610000000000000E9    -9.525386647876576E-1    1.154287850668708E-1
 8.620000000000000E9    -9.288550456931901E-1    2.416482719286644E-1
 8.630000000000000E9    -8.901960831263104E-1    3.624925869691839E-1
 8.640000000000000E9    -8.374009442181023E-1    4.755956391295201E-1
 8.650000000000000E9    -7.716351396084848E-1    5.790379698021941E-1
 8.660000000000000E9    -6.944080035008594E-1    6.713160568928254E-1
 8.670000000000000E9    -6.066903790485042E-1    7.516536649543598E-1
 8.680000000000000E9    -5.099546315667890E-1    8.194774266990512E-1
 8.690000000000000E9    -4.058569980388463E-1    8.745518792777383E-1
 8.700000000000000E9    -2.959299772093988E-1    9.164438628128551E-1
 8.710000000000000E9    -1.821142936315574E-1    9.452480052617998E-1
 8.720000000000000E9    -6.702773295547144E-2    9.606942803283592E-1
 8.730000000000000E9     4.750832701625929E-2    9.632424090591392E-1
 8.740000000000000E9     1.596727863304616E-1    9.529598433038804E-1
 8.750000000000000E9     2.680721255204671E-1    9.301419944370077E-1
 8.760000000000000E9     3.717796920714282E-1    8.946843092066002E-1
 8.770000000000000E9     4.697658702175439E-1    8.475159623364089E-1
 8.780000000000000E9     5.617156976456986E-1    7.883209681474088E-1
 8.790000000000000E9     6.467777414663576E-1    7.180070225979692E-1
 8.800000000000000E9     7.240267577835179E-1    6.377519761539444E-1
 8.810000000000000E9     7.925148172642659E-1    5.484225801498620E-1
 8.820000000000000E9     8.511223582961548E-1    4.517538670565359E-1
 8.830000000000000E9     8.989651529362205E-1    3.490506209315183E-1
 8.840000000000000E9     9.346196534335671E-1    2.421267109286699E-1
 8.850000000000000E9     9.575050851718349E-1    1.320739461653297E-1
 8.860000000000000E9     9.666946291776385E-1    2.040454683609508E-2
 8.870000000000000E9     9.620149937525666E-1   -9.231446469428549E-2
 8.880000000000000E9     9.432989898248267E-1   -2.046134895322787E-1
 8.890000000000000E9     9.100352194466347E-1   -3.155353458149113E-1
 8.900000000000000E9     8.628679917658948E-1   -4.237668981103534E-1
 8.910000000000000E9     8.021977156214692E-1   -5.271818073101304E-1
 8.920000000000000E9     7.288227847132348E-1   -6.236635618141365E-1
 8.930000000000000E9     6.436370847062413E-1   -7.112186194583653E-1
 8.940000000000000E9     5.483417924402911E-1   -7.877507107393487E-1
 8.950000000000000E9     4.443351862894349E-1   -8.512623341397935E-1
 8.960000000000000E9     3.330871444777940E-1   -9.004274096426755E-1
 8.970000000000000E9     2.162900496938954E-1   -9.345288054659365E-1
 8.980000000000000E9     9.545168123238978E-2   -9.529439113725948E-1
 8.990000000000000E9    -2.765269277506687E-2   -9.557000475953028E-1
 9.000000000000000E9    -1.507221089150571E-1   -9.422260937006891E-1
 9.010000000000000E9    -2.718458560125536E-1   -9.137658704341441E-1
 9.020000000000000E9    -3.884789110238289E-1   -8.708166566502784E-1
 9.030000000000000E9    -4.978793711994577E-1   -8.142170123383465E-1
 9.040000000000000E9    -5.974936332225879E-1   -7.457062156771846E-1
 9.050000000000000E9    -6.862140780911902E-1   -6.666796212098578E-1
 9.060000000000000E9    -7.626477441635552E-1   -5.790558539003126E-1
 9.070000000000000E9    -8.260858960528084E-1   -4.839011247848001E-1
 9.080000000000000E9    -8.765147578878791E-1   -3.832011556181004E-1
 9.090000000000000E9    -9.141316264369765E-1   -2.783266377340426E-1
 9.100000000000000E9    -9.394962066940120E-1   -1.705609104515995E-1
 9.110000000000000E9    -9.526706447367822E-1   -6.178282838803052E-2
 9.120000000000000E9    -9.543060325690763E-1    4.618514644158090E-2
 9.130000000000000E9    -9.447752591707501E-1    1.515675670030530E-1
 9.140000000000000E9    -9.247723837743926E-1    2.526572502477968E-1
 9.150000000000000E9    -8.951251424465718E-1    3.481253746388208E-1
 9.160000000000000E9    -8.567515427457599E-1    4.368909205940341E-1
 9.170000000000000E9    -8.107016654559885E-1    5.186456757105613E-1
 9.180000000000000E9    -7.576467991413388E-1    5.932572610859246E-1
 9.190000000000000E9    -6.989596577274683E-1    6.610092641440243E-1
 9.200000000000000E9    -6.351852023200218E-1    7.222263488006992E-1
 9.210000000000000E9    -5.670901012692079E-1    7.771981720628047E-1
 9.220000000000000E9    -4.951779157273988E-1    8.255972049115737E-1
 9.230000000000000E9    -4.207507998318855E-1    8.673362023661818E-1
 9.240000000000000E9    -3.440460558026555E-1    9.021480034415094E-1
 9.250000000000000E9    -2.660432663900582E-1    9.297350525487047E-1
 9.260000000000000E9    -1.881210455191233E-1    9.499445112705663E-1
 9.270000000000000E9    -1.104232899800549E-1    9.629190890214080E-1
 9.280000000000000E9    -3.348183840499111E-2    9.690448074099650E-1
 9.290000000000000E9     4.247921208354601E-2    9.686348732956163E-1
 9.300000000000000E9     1.173334884980425E-1    9.622807149956447E-1
 9.310000000000000E9     1.911699381939840E-1    9.502473265587159E-1
 9.320000000000000E9     2.637875641507865E-1    9.330103678968509E-1
 9.330000000000000E9     3.350333199492625E-1    9.106389918343556E-1
 9.340000000000000E9     4.045671882939723E-1    8.832759382304873E-1
 9.350000000000000E9     4.716800020268856E-1    8.508787920860585E-1
 9.360000000000000E9     5.359714841942159E-1    8.133205162554400E-1
 9.370000000000000E9     5.966464798299322E-1    7.711323769405066E-1
 9.380000000000000E9     6.534212996319464E-1    7.243588335167368E-1
 9.390000000000000E9     7.059896439085328E-1    6.732474178496001E-1
 9.400000000000000E9     7.544384600843922E-1    6.182185818863194E-1
 9.410000000000000E9     7.985592091183986E-1    5.594254432595394E-1
 9.420000000000000E9     8.386979237965171E-1    4.971732270128003E-1
 9.430000000000000E9     8.747460746630931E-1    4.312149703781593E-1
 9.440000000000000E9     9.062138998189772E-1    3.614004345984219E-1
 9.450000000000000E9     9.325362454400140E-1    2.878853768776284E-1
 9.460000000000000E9     9.531940959942122E-1    2.109040757960258E-1
 9.470000000000000E9     9.676745352114924E-1    1.303850366973205E-1
 9.480000000000000E9     9.750578245832269E-1    4.742394711684741E-2
 9.490000000000000E9     9.747999016594200E-1   -3.761966709369295E-2
 9.500000000000000E9     9.672423784996886E-1   -1.239904151518683E-1
 9.510000000000000E9     9.510975124052700E-1   -2.110371558552948E-1
 9.520000000000000E9     9.262879899071839E-1   -2.984478083539943E-1
 9.530000000000000E9     8.930841083482862E-1   -3.854528342103423E-1
 9.540000000000000E9     8.505469039921705E-1   -4.713909228766832E-1
 9.550000000000000E9     7.978809603961033E-1   -5.553408639461563E-1
 9.560000000000000E9     7.341860775379515E-1   -6.360980960175010E-1
 9.570000000000000E9     6.588934360232074E-1   -7.121268050265631E-1
 9.580000000000000E9     5.718345227484469E-1   -7.815312068395536E-1
 9.590000000000000E9     4.733275043174412E-1   -8.420330053435933E-1
 9.600000000000000E9     3.638134847341455E-1   -8.916572446088014E-1
 9.610000000000000E9     2.448473315925842E-1   -9.284990658938180E-1
 9.620000000000000E9     1.182884137565995E-1   -9.501306208452360E-1
 9.630000000000000E9    -1.420998099079158E-2   -9.549278773775902E-1
 9.640000000000000E9    -1.496816260481127E-1   -9.410748952545921E-1
 9.650000000000000E9    -2.856221490441189E-1   -9.067960002743752E-1
 9.660000000000000E9    -4.182221078127871E-1   -8.505830374717414E-1
 9.670000000000000E9    -5.430977527294623E-1   -7.726519930144006E-1
 9.680000000000000E9    -6.558414708791980E-1   -6.737732870327863E-1
 9.690000000000000E9    -7.523069733629073E-1   -5.566032979393292E-1
 9.700000000000000E9    -8.290347283284658E-1   -4.245498967213178E-1
 9.710000000000000E9    -8.835093081677294E-1   -2.822925977094542E-1
 9.720000000000000E9    -9.147113346600969E-1   -1.346518714421338E-1
 9.730000000000000E9    -9.221125757906926E-1    1.367612639831814E-2
 9.740000000000000E9    -9.066599725185644E-1    1.585048370879979E-1
 9.750000000000000E9    -8.699150934462229E-1    2.959105290646526E-1
 9.760000000000000E9    -8.140490379650288E-1    4.228560873986374E-1
 9.770000000000000E9    -7.417706914385478E-1    5.368955739084217E-1
 9.780000000000000E9    -6.562907164333934E-1    6.357851511324213E-1
 9.790000000000000E9    -5.612784281025039E-1    7.190270316043168E-1
 9.800000000000000E9    -4.602958311454112E-1    7.862012923346083E-1
 9.810000000000000E9    -3.564417641633630E-1    8.379504433493050E-1
 9.820000000000000E9    -2.525860476919045E-1    8.751205547242098E-1
 9.830000000000000E9    -1.497599922717739E-1    8.990779859404124E-1
 9.840000000000000E9    -4.968567794886731E-2    9.108461928970550E-1
 9.850000000000000E9     4.714294610829861E-2    9.114368658447347E-1
 9.860000000000000E9     1.401764025675522E-1    9.014857443681253E-1
 9.870000000000000E9     2.286835325716556E-1    8.822450792894259E-1
 9.880000000000000E9     3.123952147307998E-1    8.550420587635030E-1
 9.890000000000000E9     3.906164145163826E-1    8.210709704730038E-1
 9.900000000000000E9     4.631165318667883E-1    7.817518985148236E-1
 9.910000000000000E9     5.296461267770648E-1    7.382247868641119E-1
 9.920000000000000E9     5.902203528396640E-1    6.915494071356307E-1
 9.930000000000000E9     6.446352797255505E-1    6.425114251277368E-1
 9.940000000000000E9     6.933752947235087E-1    5.913333367081750E-1
 9.950000000000000E9     7.363310596061982E-1    5.380891586065821E-1
 9.960000000000000E9     7.738574764096363E-1    4.828711802980295E-1
 9.970000000000000E9     8.061937062079018E-1    4.254857393218069E-1
 9.980000000000000E9     8.337564017171359E-1    3.662302782461845E-1
 9.990000000000000E9     8.565675523865655E-1    3.053775547905342E-1
 1.000000000000000E+10   8.754259370187968E-1    2.436633730048992E-1
 1.001000000000000E+10   8.898848180691830E-1    1.816091319488155E-1
 1.002000000000000E+10   9.007074563937491E-1    1.199752355948840E-1
 1.003000000000000E+10   9.080261123392626E-1    5.936962020030365E-2
 1.004000000000000E+10   9.116761034292405E-1   -1.051374031306694E-4
 1.005000000000000E+10   9.117373739181742E-1   -5.839899524673002E-2
 1.006000000000000E+10   9.080098072091890E-1   -1.159335604322438E-1
 1.007000000000000E+10   9.000338135396114E-1   -1.728758730670259E-1
 1.008000000000000E+10   8.876491514511026E-1   -2.297501310478074E-1
 1.009000000000000E+10   8.708456692537243E-1   -2.868358111797071E-1
 1.010000000000000E+10   8.495698349530409E-1   -3.438087611007632E-1
 1.011000000000000E+10   8.241423725095252E-1   -4.006987036944628E-1
 1.012000000000000E+10   7.951983526257572E-1   -4.565261981791042E-1
 1.013000000000000E+10   7.629208961087709E-1   -5.110154019718742E-1
 1.014000000000000E+10   7.278029129791924E-1   -5.633765377330595E-1
 1.015000000000000E+10   6.900158206515411E-1   -6.131160699564241E-1
 1.016000000000000E+10   6.490379266787308E-1   -6.600236988311201E-1
 1.017000000000000E+10   6.046108004563563E-1   -7.039488800539153E-1
 1.018000000000000E+10   5.560969987438574E-1   -7.446160443821811E-1
 1.019000000000000E+10   5.030735782099531E-1   -7.820617545381835E-1
 1.020000000000000E+10   4.450572250943091E-1   -8.162514904144809E-1
 1.021000000000000E+10   3.819645388632001E-1   -8.470961572371437E-1
 1.022000000000000E+10   3.140596671568523E-1   -8.741053262394319E-1
 1.023000000000000E+10   2.422663243491497E-1   -8.967566918061255E-1
 1.024000000000000E+10   1.674913470950807E-1   -9.146474287584393E-1
 1.025000000000000E+10   9.076872946382769E-2   -9.270418934169032E-1
 1.026000000000000E+10   1.284443210954674E-2   -9.333671848583811E-1
 1.027000000000000E+10  -6.558199237031503E-2   -9.330644579686393E-1
 1.028000000000000E+10  -1.447081154103901E-1   -9.254402879902762E-1
 1.029000000000000E+10  -2.245545618375515E-1   -9.097078830722611E-1
 1.030000000000000E+10  -3.052820404065850E-1   -8.853450980720128E-1
 1.031000000000000E+10  -3.867436804634818E-1   -8.515857100195721E-1
 1.032000000000000E+10  -4.683132433092648E-1   -8.079658768448429E-1
 1.033000000000000E+10  -5.484183953931233E-1   -7.546316014260805E-1
 1.034000000000000E+10  -6.257288470319392E-1   -6.918519912656159E-1
 1.035000000000000E+10  -6.985577830946095E-1   -6.196369893358904E-1
 1.036000000000000E+10  -7.645616122863478E-1   -5.389580828006363E-1
 1.037000000000000E+10  -8.221157617321381E-1   -4.502437424094481E-1
 1.038000000000000E+10  -8.694675007125570E-1   -3.541642766042573E-1
 1.039000000000000E+10  -9.050871391935637E-1   -2.509066400684922E-1
 1.040000000000000E+10  -9.280256577699540E-1   -1.413085018866390E-1
 1.041000000000000E+10  -9.371753322775968E-1   -2.602682395247308E-2
 1.042000000000000E+10  -9.317960747398303E-1    9.336594996320791E-2
 1.043000000000000E+10  -9.107995363119964E-1    2.149968926082920E-1
 1.044000000000000E+10  -8.742092203340021E-1    3.359860650320226E-1
 1.045000000000000E+10  -8.220718478470579E-1    4.526859177226644E-1
 1.046000000000000E+10  -7.554033825483052E-1    5.621028746051346E-1
 1.047000000000000E+10  -6.753730386857313E-1    6.611542772519243E-1
 1.048000000000000E+10  -5.833224527485964E-1    7.475610004202076E-1
 1.049000000000000E+10  -4.804457643316926E-1    8.201177729041664E-1
 1.050000000000000E+10  -3.688438372998705E-1    8.772711657666767E-1
 1.051000000000000E+10  -2.501061035653619E-1    9.186495188656836E-1
 1.052000000000000E+10  -1.261914451082104E-1    9.439469015111651E-1
 1.053000000000000E+10   2.746810283143902E-4    9.531107662258120E-1
 1.054000000000000E+10   1.259842406633502E-1    9.462752166915470E-1
 1.055000000000000E+10   2.482320782582644E-1    9.245073069279159E-1
 1.056000000000000E+10   3.638483734520315E-1    8.889589933981814E-1
 1.057000000000000E+10   4.712423295728445E-1    8.408739284454255E-1
 1.058000000000000E+10   5.686254221553284E-1    7.818445599288997E-1
 1.059000000000000E+10   6.554038056813770E-1    7.134949890595812E-1
 1.060000000000000E+10   7.316864544985007E-1    6.365431044392733E-1
 1.061000000000000E+10   7.973874037415379E-1    5.522493654756333E-1
 1.062000000000000E+10   8.528342662676038E-1    4.619416714121810E-1
 1.063000000000000E+10   8.979535610486219E-1    3.672950428697098E-1
 1.064000000000000E+10   9.331841593374488E-1    2.698827518923497E-1
 1.065000000000000E+10   9.580356501264102E-1    1.713077265247426E-1
 1.066000000000000E+10   9.728858838680967E-1    7.349766265055949E-2
 1.067000000000000E+10   9.777745488853856E-1   -2.168132285429463E-2
 1.068000000000000E+10   9.730344575423443E-1   -1.137206667645931E-1
 1.069000000000000E+10   9.594152043337587E-1   -2.020847274639253E-1
 1.070000000000000E+10   9.373138116366340E-1   -2.867859096316039E-1
 1.071000000000000E+10   9.070464022354233E-1   -3.683725020559813E-1
 1.072000000000000E+10   8.694806406741978E-1   -4.466906807558728E-1
 1.073000000000000E+10   8.249722682416388E-1   -5.218576782456721E-1
 1.074000000000000E+10   7.747099716775729E-1   -5.930805913094810E-1
 1.075000000000000E+10   7.189019618242655E-1   -6.598689235086391E-1
 1.076000000000000E+10   6.588356189856713E-1   -7.214412325627917E-1
 1.077000000000000E+10   5.948745772824013E-1   -7.765913253535226E-1
 1.078000000000000E+10   5.285321197947950E-1   -8.249054171715190E-1
 1.079000000000000E+10   4.595412331538327E-1   -8.656259963721068E-1
 1.080000000000000E+10   3.885131345828188E-1   -8.992895875456508E-1
 1.081000000000000E+10   3.148596170061957E-1   -9.260387603700316E-1
 1.082000000000000E+10   2.390944390041185E-1   -9.459763171578540E-1
 1.083000000000000E+10   1.606600746086647E-1   -9.599900471292184E-1
 1.084000000000000E+10   8.005817039066032E-2   -9.677046249478489E-1
 1.085000000000000E+10  -1.891454877869741E-3   -9.697633677313323E-1
 1.086000000000000E+10  -8.468227640685651E-2   -9.655908006852774E-1
 1.087000000000000E+10  -1.666623392161524E-1   -9.551071057448194E-1
 1.088000000000000E+10  -2.465570808010835E-1   -9.385026171461740E-1
 1.089000000000000E+10  -3.238159791010770E-1   -9.152752476300110E-1
 1.090000000000000E+10  -3.974738872637832E-1   -8.854339022339127E-1
 1.091000000000000E+10  -4.676160123211577E-1   -8.489388889096832E-1
 1.092000000000000E+10  -5.341450010150630E-1   -8.062329908744740E-1
 1.093000000000000E+10  -5.974375657898735E-1   -7.570900763424541E-1
 1.094000000000000E+10  -6.575756648697668E-1   -7.017731751199222E-1
 1.095000000000000E+10  -7.143548406926152E-1   -6.404007649925748E-1
 1.096000000000000E+10  -7.670186281184690E-1   -5.732490823156756E-1
 1.097000000000000E+10  -8.149981706162495E-1   -5.009993219134086E-1
 1.098000000000000E+10  -8.567935128312091E-1   -4.245925688283063E-1
 1.099000000000000E+10  -8.914510435447862E-1   -3.451115129699468E-1
 1.100000000000000E+10  -9.184433472608658E-1   -2.633191599826590E-1
 1.101000000000000E+10  -9.373688790551666E-1   -1.800810324680402E-1
 1.102000000000000E+10  -9.480280235087339E-1   -9.567179725605136E-2
 1.103000000000000E+10  -9.505700134100356E-1   -1.010116586572096E-2
 1.104000000000000E+10  -9.450049198204273E-1    7.621231147089871E-2
 1.105000000000000E+10  -9.314612365210387E-1    1.632409747716056E-1
 1.106000000000000E+10  -9.099501497742531E-1    2.501733407217799E-1
 1.107000000000000E+10  -8.801523602261047E-1    3.363344753786220E-1
 1.108000000000000E+10  -8.424601047061694E-1    4.205408771946453E-1
 1.109000000000000E+10  -7.966912603832803E-1    5.010088504825636E-1
 1.110000000000000E+10  -7.431475318192502E-1    5.768085791905216E-1
 1.111000000000000E+10  -6.824808597350687E-1    6.462374407255553E-1
 1.112000000000000E+10  -6.153460393497131E-1    7.087781716654231E-1
 1.113000000000000E+10  -5.425891646484624E-1    7.639761880362846E-1
 1.114000000000000E+10  -4.647128782860458E-1    8.117195663506774E-1
 1.115000000000000E+10  -3.822678036610512E-1    8.520151721811663E-1
 1.116000000000000E+10  -2.960138038540294E-1    8.848410851592552E-1
 1.117000000000000E+10  -2.063910093758996E-1    9.097244519301950E-1
 1.118000000000000E+10  -1.143098221229769E-1    9.259769816141258E-1
 1.119000000000000E+10  -2.118122271445807E-2    9.333660915171335E-1
 1.120000000000000E+10   7.163749828435641E-2    9.315055595714986E-1
 1.121000000000000E+10   1.632534287768004E-1    9.200197399382612E-1
 1.122000000000000E+10   2.525590682704201E-1    8.993288220003651E-1
 1.123000000000000E+10   3.386551668186567E-1    8.697247681467896E-1
 1.124000000000000E+10   4.211500546983772E-1    8.321040301296820E-1
 1.125000000000000E+10   4.997453728671341E-1    7.867356659195394E-1
 1.126000000000000E+10   5.736015275063853E-1    7.345039714298752E-1
 1.127000000000000E+10   6.428046339978203E-1    6.757298581931502E-1
 1.128000000000000E+10   7.063115179205989E-1    6.109582186158530E-1
 1.129000000000000E+10   7.634415913957462E-1    5.406012051797496E-1
 1.130000000000000E+10   8.133796167412423E-1    4.655811323594271E-1
 1.131000000000000E+10   8.555276443217168E-1    3.866188123071844E-1
 1.132000000000000E+10   8.891317013802931E-1    3.046902735909993E-1
 1.133000000000000E+10   9.142589984173618E-1    2.205126256288234E-1
 1.134000000000000E+10   9.310816312746993E-1    1.348853376932133E-1
 1.135000000000000E+10   9.400615074516241E-1    4.852369753273107E-2
 1.136000000000000E+10   9.411379357496085E-1   -3.826333921377602E-2
 1.137000000000000E+10   9.348554465058047E-1   -1.249283763713176E-1
 1.138000000000000E+10   9.212488759501039E-1   -2.109885114426419E-1
 1.139000000000000E+10   8.998622356706195E-1   -2.955689906621329E-1
 1.140000000000000E+10   8.707997373435451E-1   -3.779558786807044E-1
 1.141000000000000E+10   8.341062190470799E-1   -4.575536171754292E-1
 1.142000000000000E+10   7.896311760582929E-1   -5.328726220528747E-1
 1.143000000000000E+10   7.382584503839651E-1   -6.033778534268881E-1
 1.144000000000000E+10   6.806198058401075E-1   -6.684612327126151E-1
 1.145000000000000E+10   6.173249447325541E-1   -7.278032227030796E-1
 1.146000000000000E+10   5.488085682167125E-1   -7.816807600846215E-1
 1.147000000000000E+10   4.757982119772071E-1   -8.295575571240225E-1
 1.148000000000000E+10   3.982503985569152E-1   -8.708994796353871E-1
 1.149000000000000E+10   3.172438081755434E-1   -9.055394708616356E-1
 1.150000000000000E+10   2.324350633025112E-1   -9.325663286635999E-1
 1.151000000000000E+10   1.449892540530900E-1   -9.514151867939717E-1
 1.152000000000000E+10   5.591239065325303E-2   -9.617358533441328E-1
 1.153000000000000E+10  -3.443154003208017E-2   -9.634124164321305E-1
 1.154000000000000E+10  -1.247931251949646E-1   -9.559380992047878E-1
 1.155000000000000E+10  -2.143736814576472E-1   -9.396766566979143E-1
 1.156000000000000E+10  -3.020182071341103E-1   -9.148901553592748E-1
 1.157000000000000E+10  -3.876115940322480E-1   -8.821393896578060E-1
 1.158000000000000E+10  -4.701784920098199E-1   -8.416029041116559E-1
 1.159000000000000E+10  -5.487764240074536E-1   -7.932376155935330E-1
 1.160000000000000E+10  -6.235626958815136E-1   -7.367422218246972E-1
 1.161000000000000E+10  -6.929368313920102E-1   -6.726589344231041E-1
 1.162000000000000E+10  -7.561720746405228E-1   -6.002585414210950E-1
 1.163000000000000E+10  -8.118460061370927E-1   -5.209510030298635E-1
 1.164000000000000E+10  -8.594108751257111E-1   -4.352377504398453E-1
 1.165000000000000E+10  -8.986507570564960E-1   -3.445403836614627E-1
 1.166000000000000E+10  -9.283634638426078E-1   -2.504300866668422E-1
 1.167000000000000E+10  -9.490364933676100E-1   -1.536169016241403E-1
 1.168000000000000E+10  -9.600802808680404E-1   -5.559555761798769E-2
 1.169000000000000E+10  -9.610885783742782E-1    4.328016652518648E-2
 1.170000000000000E+10  -9.520399175700393E-1    1.421059373072168E-1
 1.171000000000000E+10  -9.320337488387949E-1    2.392434313921420E-1
 1.172000000000000E+10  -9.013328067588504E-1    3.342395232471200E-1
 1.173000000000000E+10  -8.598370292433992E-1    4.262675200491554E-1
 1.174000000000000E+10  -8.078799154722832E-1    5.140946952217060E-1
 1.175000000000000E+10  -7.462835237369311E-1    5.964940836167867E-1
 1.176000000000000E+10  -6.762871743714617E-1    6.723401974823936E-1
 1.177000000000000E+10  -5.988703325741779E-1    7.405130181447942E-1
 1.178000000000000E+10  -5.154413151407016E-1    8.001706318139282E-1
 1.179000000000000E+10  -4.275384712378309E-1    8.503936585993417E-1
 1.180000000000000E+10  -3.358722392837690E-1    8.906521944806941E-1
 1.181000000000000E+10  -2.413524067577117E-1    9.204505011589525E-1
 1.182000000000000E+10  -1.447801541337886E-1    9.396790438193000E-1
 1.183000000000000E+10  -4.664386998997281E-2    9.478957470892676E-1
 1.184000000000000E+10   5.138280636037224E-2    9.451359173919510E-1
 1.185000000000000E+10   1.485512514214620E-1    9.322855768047802E-1
 1.186000000000000E+10   2.432851441640550E-1    9.096594015659364E-1
 1.187000000000000E+10   3.346696169760303E-1    8.784244765410613E-1
 1.188000000000000E+10   4.217709495993442E-1    8.391750192704419E-1
 1.189000000000000E+10   5.035746969568498E-1    7.926684074904615E-1
 1.190000000000000E+10   5.792075855968963E-1    7.393934599540218E-1
 1.191000000000000E+10   6.483557383398939E-1    6.794970270652273E-1
 1.192000000000000E+10   7.101243991347020E-1    6.137761986091427E-1
 1.193000000000000E+10   7.644096021955442E-1    5.425650987804991E-1
 1.194000000000000E+10   8.108374910804053E-1    4.663235703686759E-1
 1.195000000000000E+10   8.496958459344534E-1    3.864527545548269E-1
 1.196000000000000E+10   8.808134664931784E-1    3.036921625358479E-1
 1.197000000000000E+10   9.047013745917247E-1    2.195004921510017E-1
 1.198000000000000E+10   9.208622623262369E-1    1.348633190766086E-1
 1.199000000000000E+10   9.301409337775862E-1    5.102316982134306E-2
 1.200000000000000E+10   9.322326279709211E-1   -3.120199856215355E-2
 1.201000000000000E+10   9.272473160746035E-1   -1.115105848006405E-1
 1.202000000000000E+10   9.153323332413461E-1   -1.895030165702490E-1
 1.203000000000000E+10   8.962929567075972E-1   -2.651475598356260E-1
 1.204000000000000E+10   8.703141727049519E-1   -3.384956638025456E-1
 1.205000000000000E+10   8.377748703798623E-1   -4.097456972429955E-1
 1.206000000000000E+10   7.990505621215922E-1   -4.783591545435911E-1
 1.207000000000000E+10   7.548275810580864E-1   -5.438044051664485E-1
 1.208000000000000E+10   7.059360665512563E-1   -6.059655076572770E-1
 1.209000000000000E+10   6.531899989943177E-1   -6.637075565020830E-1
 1.210000000000000E+10   5.973208259545508E-1   -7.165695656741264E-1
 1.211000000000000E+10   5.385005819122141E-1   -7.641780894163480E-1
 1.212000000000000E+10   4.770563226564495E-1   -8.059848847187511E-1
 1.213000000000000E+10   4.129904351233423E-1   -8.417941743034143E-1
 1.214000000000000E+10   3.459118255171497E-1   -8.715584797602850E-1
 1.215000000000000E+10   2.764196453389944E-1   -8.954921596827264E-1
 1.216000000000000E+10   2.041921281156807E-1   -9.137002249319974E-1
 1.217000000000000E+10   1.300305359014881E-1   -9.265562431076222E-1
 1.218000000000000E+10   5.440553219096556E-2   -9.339958816175590E-1
 1.219000000000000E+10  -2.172378525981949E-2   -9.363551859767127E-1
 1.220000000000000E+10  -9.740590316078293E-2   -9.335091450152692E-1
 1.221000000000000E+10  -1.719796189483364E-1   -9.251618376870399E-1
 1.222000000000000E+10  -2.450311578076411E-1   -9.112818207229225E-1
 1.223000000000000E+10  -3.155372405536881E-1   -8.913339650999599E-1
 1.224000000000000E+10  -3.838072399427696E-1   -8.653880023355440E-1
 1.225000000000000E+10  -4.500620083401849E-1   -8.330475379570389E-1
 1.226000000000000E+10  -5.142822763309205E-1   -7.944133875005137E-1
 1.227000000000000E+10  -5.762618551087684E-1   -7.492023403217023E-1
 1.228000000000000E+10  -6.357199355670873E-1   -6.982879758871058E-1
 1.229000000000000E+10  -6.922108468996472E-1   -6.423185375859870E-1
 1.230000000000000E+10  -7.449404102544703E-1   -5.820585996372950E-1
 1.231000000000000E+10  -7.933075217655577E-1   -5.178968933497328E-1
 1.232000000000000E+10  -8.365488602140946E-1   -4.508011291436668E-1
 1.233000000000000E+10  -8.734858915790370E-1   -3.810551171577126E-1
 1.234000000000000E+10  -9.041355035551673E-1   -3.087186593023770E-1
 1.235000000000000E+10  -9.278804406528675E-1   -2.334070859155399E-1
 1.236000000000000E+10  -9.444296419245608E-1   -1.555047884036570E-1
 1.237000000000000E+10  -9.538843883725669E-1   -7.426960003984152E-2
 1.238000000000000E+10  -9.558756084121411E-1    9.442052947854785E-3
 1.239000000000000E+10  -9.506560410824797E-1    9.567215805817998E-2
 1.240000000000000E+10  -9.381059175180342E-1    1.827077896644855E-1
 1.241000000000000E+10  -9.182691057120227E-1    2.695459339963077E-1
 1.242000000000000E+10  -8.907512321129103E-1    3.548129801125936E-1
 1.243000000000000E+10  -8.554685320882878E-1    4.373495069750535E-1
 1.244000000000000E+10  -8.128455993263110E-1    5.159031142941477E-1
 1.245000000000000E+10  -7.621930960975358E-1    5.898363354590874E-1
 1.246000000000000E+10  -7.033260004615175E-1    6.587682990601827E-1
 1.247000000000000E+10  -6.367245379045227E-1    7.220601169470448E-1
 1.248000000000000E+10  -5.623487412492271E-1    7.796373219567152E-1
 1.249000000000000E+10  -4.804624222750498E-1    8.309118867059485E-1
 1.250000000000000E+10  -3.923853772224341E-1    8.746401754861873E-1
