#  HZ   S   RI   R     50.00 
! Rohde & Schwarz Vector Network Analyzer 
! Rohde-Schwarz,ZNA43-4Port,1332450044101932,2.92
! Created: UTC 6/1/2026, 11:34:59 AM
! freq[Hz]                re:S11                  im:S11
 8.000000000000000E9    -3.193698224183799E-1    9.199516238644943E-1
 8.010000000000000E9    -2.336770903870184E-1    9.474725606644244E-1
 8.020000000000000E9    -1.489877027225676E-1    9.663291655421888E-1
 8.030000000000000E9    -6.518222019756775E-2    9.767879019732383E-1
 8.040000000000000E9     1.807440043991169E-2    9.792424682894649E-1
 8.050000000000000E9     1.006337651928817E-1    9.740721157847267E-1
 8.060000000000000E9     1.819653504641436E-1    9.611697656633683E-1
 8.070000000000000E9     2.620483344262358E-1    9.416385577595306E-1
 8.080000000000000E9     3.400885152486323E-1    9.159259496300558E-1
 8.090000000000000E9     4.154761380797377E-1    8.843722201523098E-1
 8.100000000000000E9     4.880816560671748E-1    8.470658259338262E-1
 8.110000000000000E9     5.572095324280741E-1    8.046328775655811E-1
 8.120000000000000E9     6.221277342624859E-1    7.569245846264793E-1
 8.130000000000000E9     6.829098881205966E-1    7.033355388735232E-1
 8.140000000000000E9     7.390263948750206E-1    6.439644444516519E-1
 8.150000000000000E9     7.904736094083108E-1    5.782512538404389E-1
 8.160000000000000E9     8.366472756492365E-1    5.068889563319013E-1
 8.170000000000000E9     8.772737896729954E-1    4.296184320627720E-1
 8.180000000000000E9     9.118145045155481E-1    3.472766845885699E-1
 8.190000000000000E9     9.400119494447238E-1    2.604879058711230E-1
 8.200000000000000E9     9.605594731165278E-1    1.700503346630763E-1
 8.210000000000000E9     9.733302338196643E-1    7.641928401759410E-2
 8.220000000000000E9     9.767609134416526E-1   -1.981076057474572E-2
 8.230000000000000E9     9.701312094431934E-1   -1.179350356917905E-1
 8.240000000000000E9     9.520046357136004E-1   -2.175992394444886E-1
 8.250000000000000E9     9.220469142362109E-1   -3.182569629405418E-1
 8.260000000000000E9     8.789063539838766E-1   -4.187783006868421E-1
 8.270000000000000E9     8.220403878517895E-1   -5.176680135091285E-1
 8.280000000000000E9     7.513877732883477E-1   -6.129234856021669E-1
 8.290000000000000E9     6.667751325072819E-1   -7.022814260622530E-1
 8.300000000000000E9     5.695705047013186E-1   -7.827591987515230E-1
 8.310000000000000E9     4.602331744082962E-1   -8.521665548576091E-1
 8.320000000000000E9     3.398628442340822E-1   -9.075799059327321E-1
 8.330000000000000E9     2.097881590663293E-1   -9.464122399958427E-1
 8.340000000000000E9     7.143959514918455E-2   -9.661165500579713E-1
 8.350000000000000E9    -7.264368451777889E-2   -9.643370285674753E-1
 8.360000000000000E9    -2.194918452364084E-1   -9.392752799960692E-1
 8.370000000000000E9    -3.647963633286442E-1   -8.900765697816111E-1
 8.380000000000000E9    -5.039782098660234E-1   -8.170780678162527E-1
 8.390000000000000E9    -6.318009927395566E-1   -7.218369155539675E-1
 8.400000000000000E9    -7.435528907338030E-1   -6.069254665549646E-1
 8.410000000000000E9    -8.350821905234497E-1   -4.756742025728561E-1
 8.420000000000000E9    -9.030678194658048E-1   -3.321640458422818E-1
 8.430000000000000E9    -9.458834216424655E-1   -1.806052258721001E-1
 8.440000000000000E9    -9.624248254901728E-1   -2.524297826795914E-2
 8.450000000000000E9    -9.529761903496483E-1    1.299353931130477E-1
 8.460000000000000E9    -9.186192421105831E-1    2.807733060571560E-1
 8.470000000000000E9    -8.617824768221024E-1    4.230067549775152E-1
 8.480000000000000E9    -7.851565774253371E-1    5.529612408351176E-1
 8.490000000000000E9    -6.923221919128419E-1    6.674441636058450E-1
 8.500000000000000E9    -5.874999078156316E-1    7.640206713598533E-1
 8.510000000000000E9    -4.735770526773450E-1    8.422102101631674E-1
 8.520000000000000E9    -3.539389634168531E-1    9.013595441549103E-1
 8.530000000000000E9    -2.304930855340817E-1    9.415818141140703E-1
 8.540000000000000E9    -1.053112831061915E-1    9.635035294549520E-1
 8.550000000000000E9     1.969167592414321E-2    9.680901444084671E-1
 8.560000000000000E9     1.433487453874552E-1    9.564866149787022E-1
 8.570000000000000E9     2.634315084291326E-1    9.297743193700069E-1
 8.580000000000000E9     3.781743703483561E-1    8.896494595483643E-1
 8.590000000000000E9     4.856333188611691E-1    8.372111663930408E-1
 8.600000000000000E9     5.844699256981216E-1    7.740214250845443E-1
 8.610000000000000E9     6.729412131115581E-1    7.013253727944531E-1
 8.620000000000000E9     7.505879557737020E-1    6.201499438112037E-1
 8.630000000000000E9     8.169097168543503E-1    5.311436171682128E-1
 8.640000000000000E9     8.712546435974095E-1    4.350877122838486E-1
 8.650000000000000E9     9.135460634438145E-1    3.329486480672212E-1
 8.660000000000000E9     9.440249008723507E-1    2.258970436541670E-1
 8.670000000000000E9     9.623727864356721E-1    1.151323567713506E-1
 8.680000000000000E9     9.684437670524954E-1    2.408472353408157E-3
 8.690000000000000E9     9.623353772630231E-1   -1.105431913302160E-1
 8.700000000000000E9     9.441142565249550E-1   -2.216791970162767E-1
 8.710000000000000E9     9.132674570345197E-1   -3.293723629877451E-1
 8.720000000000000E9     8.706422931715856E-1   -4.322252075008065E-1
 8.730000000000000E9     8.156003887628245E-1   -5.292663987580308E-1
 8.740000000000000E9     7.486566643159837E-1   -6.192720119076929E-1
 8.750000000000000E9     6.702073460721053E-1   -7.016056216004455E-1
 8.760000000000000E9     5.812063309833865E-1   -7.747028932333763E-1
 8.770000000000000E9     4.827430430251362E-1   -8.378283560772682E-1
 8.780000000000000E9     3.767393353770204E-1   -8.894544808720550E-1
 8.790000000000000E9     2.652770322160132E-1   -9.287378124461146E-1
 8.800000000000000E9     1.501830139474107E-1   -9.548399828167223E-1
 8.810000000000000E9     3.366824433312497E-2   -9.670366556365425E-1
 8.820000000000000E9    -8.262970965039554E-2   -9.647648401030567E-1
 8.830000000000000E9    -1.971804374469763E-1   -9.479013758325037E-1
 8.840000000000000E9    -3.085494870472176E-1   -9.169625219123834E-1
 8.850000000000000E9    -4.154495470422904E-1   -8.723090310351340E-1
 8.860000000000000E9    -5.167986476795796E-1   -8.149514334318576E-1
 8.870000000000000E9    -6.108953102586223E-1   -7.456064486633710E-1
 8.880000000000000E9    -6.963949956212258E-1   -6.659509307674401E-1
 8.890000000000000E9    -7.717452760229234E-1   -5.780541952320151E-1
 8.900000000000000E9    -8.357565538504743E-1   -4.832389687757627E-1
 8.910000000000000E9    -8.873951576673815E-1   -3.836838861601937E-1
 8.920000000000000E9    -9.263878277947308E-1   -2.809148565552544E-1
 8.930000000000000E9    -9.522970966574089E-1   -1.760558969947879E-1
 8.940000000000000E9    -9.656083555149780E-1   -7.017588667025089E-2
 8.950000000000000E9    -9.667315909267356E-1    3.547035265382041E-2
 8.960000000000000E9    -9.560844325464661E-1    1.399646261625065E-1
 8.970000000000000E9    -9.346143382452081E-1    2.424286997429980E-1
 8.980000000000000E9    -9.031929616877610E-1    3.414151669359108E-1
 8.990000000000000E9    -8.626897370852480E-1    4.356361345166843E-1
 9.000000000000000E9    -8.139831635662698E-1    5.236649842752452E-1
 9.010000000000000E9    -7.584349708469823E-1    6.045362835311637E-1
 9.020000000000000E9    -6.963996539432828E-1    6.775558101652880E-1
 9.030000000000000E9    -6.285797742575235E-1    7.423911828647731E-1
 9.040000000000000E9    -5.557577054934437E-1    7.988862479380872E-1
 9.050000000000000E9    -4.781638377499221E-1    8.472015246977056E-1
 9.060000000000000E9    -3.964253040797905E-1    8.875124557209101E-1
 9.070000000000000E9    -3.112521673329642E-1    9.199955260938151E-1
 9.080000000000000E9    -2.232806576204481E-1    9.449522625441585E-1
 9.090000000000000E9    -1.335085566056049E-1    9.621070488173071E-1
 9.100000000000000E9    -4.294574230254290E-2    9.714143205749183E-1
 9.110000000000000E9     4.699740300225717E-2    9.727970811118186E-1
 9.120000000000000E9     1.357449709062026E-1    9.659370314950131E-1
 9.130000000000000E9     2.221807453248944E-1    9.509974857633332E-1
 9.140000000000000E9     3.060541569693768E-1    9.280517142798747E-1
 9.150000000000000E9     3.868757153415032E-1    8.972435688290720E-1
 9.160000000000000E9     4.650299095155420E-1    8.586450648280636E-1
 9.170000000000000E9     5.400958264240866E-1    8.123029500054046E-1
 9.180000000000000E9     6.121335629586452E-1    7.586339575998051E-1
 9.190000000000000E9     6.804481838330233E-1    6.976871962084481E-1
 9.200000000000000E9     7.442717597841718E-1    6.292683073785672E-1
 9.210000000000000E9     8.023232178540998E-1    5.543192849457994E-1
 9.220000000000000E9     8.532240282563824E-1    4.730934970504413E-1
 9.230000000000000E9     8.966064121997641E-1    3.858451295817990E-1
 9.240000000000000E9     9.306137765758358E-1    2.934515859649516E-1
 9.250000000000000E9     9.549658293292976E-1    1.962695715378610E-1
 9.260000000000000E9     9.690001830381302E-1    9.499539512646281E-2
 9.270000000000000E9     9.719576228225764E-1   -9.972187214018612E-3
 9.280000000000000E9     9.633930526291238E-1   -1.178576746784431E-1
 9.290000000000000E9     9.421856354636728E-1   -2.278820400200023E-1
 9.300000000000000E9     9.073432753252650E-1   -3.387159481862538E-1
 9.310000000000000E9     8.578200299633564E-1   -4.480142304218357E-1
 9.320000000000000E9     7.926657798517844E-1   -5.536362360439563E-1
 9.330000000000000E9     7.119880865755641E-1   -6.526599197263383E-1
 9.340000000000000E9     6.154905992790707E-1   -7.418283873209832E-1
 9.350000000000000E9     5.045503230503868E-1   -8.180996071867540E-1
 9.360000000000000E9     3.804304448338153E-1   -8.789683629285134E-1
 9.370000000000000E9     2.453620291726498E-1   -9.221856028499119E-1
 9.380000000000000E9     1.018637457111890E-1   -9.454233129245933E-1
 9.390000000000000E9    -4.705822320375069E-2   -9.467369658672207E-1
 9.400000000000000E9    -1.973922438359296E-1   -9.245130678552745E-1
 9.410000000000000E9    -3.445895740953852E-1   -8.781334596995499E-1
 9.420000000000000E9    -4.835521147644816E-1   -8.077908940436469E-1
 9.430000000000000E9    -6.092387423623301E-1   -7.153265916108721E-1
 9.440000000000000E9    -7.168055199222847E-1   -6.041343372628714E-1
 9.450000000000000E9    -8.037717971022255E-1   -4.785347764013087E-1
 9.460000000000000E9    -8.685161308787487E-1   -3.432361711700827E-1
 9.470000000000000E9    -9.102200546534237E-1   -2.027540586338329E-1
 9.480000000000000E9    -9.297728863627579E-1   -6.093930413736277E-2
 9.490000000000000E9    -9.285146176587712E-1    7.834534166254897E-2
 9.500000000000000E9    -9.072091419637149E-1    2.123758439839900E-1
 9.510000000000000E9    -8.689571220769232E-1    3.381258844875330E-1
 9.520000000000000E9    -8.155064317999856E-1    4.535102617277392E-1
 9.530000000000000E9    -7.490427543469872E-1    5.566705193308497E-1
 9.540000000000000E9    -6.726006294802859E-1    6.471440566959911E-1
 9.550000000000000E9    -5.890058878206433E-1    7.242647030237508E-1
 9.560000000000000E9    -5.009367358257653E-1    7.885453444703470E-1
 9.570000000000000E9    -4.101947355215136E-1    8.403059949471159E-1
 9.580000000000000E9    -3.184577239913162E-1    8.807361164676748E-1
 9.590000000000000E9    -2.266767294649810E-1    9.103377651784650E-1
 9.600000000000000E9    -1.357603351967571E-1    9.298492868258312E-1
 9.610000000000000E9    -4.628919263098282E-2    9.398627777578981E-1
 9.620000000000000E9     4.122767246440218E-2    9.410532617228868E-1
 9.630000000000000E9     1.260481685250784E-1    9.338077885928462E-1
 9.640000000000000E9     2.077898126539894E-1    9.191602157451637E-1
 9.650000000000000E9     2.855712015779405E-1    8.977784847698539E-1
 9.660000000000000E9     3.592976861005845E-1    8.709456011720002E-1
 9.670000000000000E9     4.288241098538900E-1    8.394481330528828E-1
 9.680000000000000E9     4.940204328489484E-1    8.038711861736758E-1
 9.690000000000000E9     5.547777071005520E-1    7.646968601614421E-1
 9.700000000000000E9     6.112591425894718E-1    7.219538193396250E-1
 9.710000000000000E9     6.632931400553150E-1    6.759834207988430E-1
 9.720000000000000E9     7.109322249695634E-1    6.265622240277365E-1
 9.730000000000000E9     7.540938470089504E-1    5.740988000665359E-1
 9.740000000000000E9     7.926747317562031E-1    5.188629606177408E-1
 9.750000000000000E9     8.268746420163339E-1    4.611688345848327E-1
 9.760000000000000E9     8.567321743411307E-1    4.015071241073955E-1
 9.770000000000000E9     8.822940548238957E-1    3.405419933355024E-1
 9.780000000000000E9     9.037857380800394E-1    2.788424264131972E-1
 9.790000000000000E9     9.211298486398010E-1    2.165067061967296E-1
 9.800000000000000E9     9.343468390029731E-1    1.537883884881546E-1
 9.810000000000000E9     9.433447008642227E-1    9.042061018877376E-2
 9.820000000000000E9     9.478704629516673E-1    2.636860295656339E-2
 9.830000000000000E9     9.475557643401625E-1   -3.845071489662828E-2
 9.840000000000000E9     9.422553079452820E-1   -1.040406592552742E-1
 9.850000000000000E9     9.317423595260488E-1   -1.701931426253124E-1
 9.860000000000000E9     9.161396328315229E-1   -2.364654462743649E-1
 9.870000000000000E9     8.957545425218867E-1   -3.022606965416173E-1
 9.880000000000000E9     8.706929542132578E-1   -3.672051934035740E-1
 9.890000000000000E9     8.413323651485770E-1   -4.307540155189952E-1
 9.900000000000000E9     8.073965428053628E-1   -4.925214651247177E-1
 9.910000000000000E9     7.688713411269246E-1   -5.523283629851589E-1
 9.920000000000000E9     7.250078001602070E-1   -6.098547963303472E-1
 9.930000000000000E9     6.754246705939237E-1   -6.650842980112524E-1
 9.940000000000000E9     6.194942308456592E-1   -7.171888418077177E-1
 9.950000000000000E9     5.570027764154026E-1   -7.660743480184242E-1
 9.960000000000000E9     4.876254047037673E-1   -8.110852338274063E-1
 9.970000000000000E9     4.119171451352943E-1   -8.512865009549094E-1
 9.980000000000000E9     3.302432552579902E-1   -8.859441133309107E-1
 9.990000000000000E9     2.434742915618816E-1   -9.140341921133261E-1
 1.000000000000000E+10   1.524844972171161E-1   -9.343902933688369E-1
 1.001000000000000E+10   5.705845477281603E-2   -9.471941050749290E-1
 1.002000000000000E+10  -4.184442121072410E-2   -9.496928667088361E-1
 1.003000000000000E+10  -1.440859165097835E-1   -9.409068069608354E-1
 1.004000000000000E+10  -2.491570216373232E-1   -9.194432916231480E-1
 1.005000000000000E+10  -3.560493690601938E-1   -8.835398681137276E-1
 1.006000000000000E+10  -4.627997320229717E-1   -8.317039616562073E-1
 1.007000000000000E+10  -5.671488311945028E-1   -7.641473329244187E-1
 1.008000000000000E+10  -6.657337709278595E-1   -6.798844058882592E-1
 1.009000000000000E+10  -7.553731991298951E-1   -5.803053391394102E-1
 1.010000000000000E+10  -8.326587648766284E-1   -4.668744222160586E-1
 1.011000000000000E+10  -8.941263509037857E-1   -3.415289056191375E-1
 1.012000000000000E+10  -9.375556819238676E-1   -2.063131517539003E-1
 1.013000000000000E+10  -9.598397561232966E-1   -6.382564432740073E-2
 1.014000000000000E+10  -9.589461376485069E-1    8.288654366105330E-2
 1.015000000000000E+10  -9.341202113589286E-1    2.302635718927215E-1
 1.016000000000000E+10  -8.851248498545664E-1    3.742650272323451E-1
 1.017000000000000E+10  -8.130993337638844E-1    5.098239060172872E-1
 1.018000000000000E+10  -7.211701004103154E-1    6.325445624338788E-1
 1.019000000000000E+10  -6.132101652572669E-1    7.386532896153110E-1
 1.020000000000000E+10  -4.935812557389553E-1    8.250357745026031E-1
 1.021000000000000E+10  -3.667898927591705E-1    8.905958934217809E-1
 1.022000000000000E+10  -2.365900064701591E-1    9.352309213861902E-1
 1.023000000000000E+10  -1.057387706933160E-1    9.598621344772470E-1
 1.024000000000000E+10   2.374828692391842E-2    9.651039253300793E-1
 1.025000000000000E+10   1.498607098597560E-1    9.528081155991852E-1
 1.026000000000000E+10   2.708161289766149E-1    9.243461962473210E-1
 1.027000000000000E+10   3.849601768708998E-1    8.820233692762156E-1
 1.028000000000000E+10   4.903041588609161E-1    8.280001840887830E-1
 1.029000000000000E+10   5.852054758788116E-1    7.649501975569716E-1
 1.030000000000000E+10   6.689616247719401E-1    6.950383755853208E-1
 1.031000000000000E+10   7.410501171035764E-1    6.200116246087402E-1
 1.032000000000000E+10   8.018703107976012E-1    5.416671914281902E-1
 1.033000000000000E+10   8.516301700630431E-1    4.603406475567068E-1
 1.034000000000000E+10   8.912506690559027E-1    3.770160685494840E-1
 1.035000000000000E+10   9.211301698222534E-1    2.920518519620639E-1
 1.036000000000000E+10   9.425867366187684E-1    2.055696068923417E-1
 1.037000000000000E+10   9.559824707996892E-1    1.182362972933191E-1
 1.038000000000000E+10   9.620996989608112E-1    3.117732560431697E-2
 1.039000000000000E+10   9.612623667434230E-1   -5.429357340501749E-2
 1.040000000000000E+10   9.541033053266673E-1   -1.373698408259210E-1
 1.041000000000000E+10   9.410356375014196E-1   -2.169660273412508E-1
 1.042000000000000E+10   9.217096402952422E-1   -2.925244656598577E-1
 1.043000000000000E+10   8.968026028949635E-1   -3.637654535083221E-1
 1.044000000000000E+10   8.660482548698489E-1   -4.313618226585993E-1
 1.045000000000000E+10   8.298129318652114E-1   -4.952611436063206E-1
 1.046000000000000E+10   7.875937188807498E-1   -5.560458816040881E-1
 1.047000000000000E+10   7.403836693513862E-1   -6.139709950679131E-1
 1.048000000000000E+10   6.885276130774682E-1   -6.689718149005882E-1
 1.049000000000000E+10   6.325467631075452E-1   -7.204613715692878E-1
 1.050000000000000E+10   5.734706402625507E-1   -7.680599214883024E-1
 1.051000000000000E+10   5.121391910233994E-1   -8.111931251644542E-1
 1.052000000000000E+10   4.489649024762730E-1   -8.489556887766363E-1
 1.053000000000000E+10   3.841692492684694E-1   -8.812156046309004E-1
 1.054000000000000E+10   3.178370947696906E-1   -9.076202618074403E-1
 1.055000000000000E+10   2.496376497317207E-1   -9.279406970886699E-1
 1.056000000000000E+10   1.789958725465292E-1   -9.424768722889463E-1
 1.057000000000000E+10   1.057656885088337E-1   -9.510508989551294E-1
 1.058000000000000E+10   3.019521385605496E-2   -9.538469778674523E-1
 1.059000000000000E+10  -4.744668167038214E-2   -9.509446242814250E-1
 1.060000000000000E+10  -1.260761887314527E-1   -9.423470449913389E-1
 1.061000000000000E+10  -2.049064451428714E-1   -9.280873206890724E-1
 1.062000000000000E+10  -2.824418617126322E-1   -9.079615676689605E-1
 1.063000000000000E+10  -3.579361510398758E-1   -8.817576936699859E-1
 1.064000000000000E+10  -4.304841473732792E-1   -8.490926740030145E-1
 1.065000000000000E+10  -4.995906885885144E-1   -8.099276956873294E-1
 1.066000000000000E+10  -5.654944689114052E-1   -7.637389228759136E-1
 1.067000000000000E+10  -6.278522123421485E-1   -7.103582359564286E-1
 1.068000000000000E+10  -6.867547537430937E-1   -6.495825189274050E-1
 1.069000000000000E+10  -7.419974930986915E-1   -5.814790781769098E-1
 1.070000000000000E+10  -7.927138922836606E-1   -5.064273091501069E-1
 1.071000000000000E+10  -8.378148823433825E-1   -4.253343137007968E-1
 1.072000000000000E+10  -8.760241679152693E-1   -3.393508098385211E-1
 1.073000000000000E+10  -9.062035903418317E-1   -2.497606551638482E-1
 1.074000000000000E+10  -9.273023177635014E-1   -1.574480984572174E-1
 1.075000000000000E+10  -9.386936202958486E-1   -6.373531987766574E-2
 1.076000000000000E+10  -9.394897306302221E-1    3.132945711902130E-2
 1.077000000000000E+10  -9.298478606858871E-1    1.271084483186430E-1
 1.078000000000000E+10  -9.091223347370763E-1    2.237333040958318E-1
 1.079000000000000E+10  -8.773388642480771E-1    3.201259843824363E-1
 1.080000000000000E+10  -8.347010436268283E-1    4.153349844429344E-1
 1.081000000000000E+10  -7.812033816700480E-1    5.076336905846522E-1
 1.082000000000000E+10  -7.175432476424739E-1    5.955552290506675E-1
 1.083000000000000E+10  -6.444642530528130E-1    6.760632282461337E-1
 1.084000000000000E+10  -5.629553321374805E-1    7.480472062779598E-1
 1.085000000000000E+10  -4.740916389715221E-1    8.094362541892783E-1
 1.086000000000000E+10  -3.791108344432582E-1    8.591130658930531E-1
 1.087000000000000E+10  -2.789246392549319E-1    8.969728989031983E-1
 1.088000000000000E+10  -1.738797284392128E-1    9.224458938288638E-1
 1.089000000000000E+10  -6.535599224611856E-2    9.357401752190992E-1
 1.090000000000000E+10   4.563380608065535E-2    9.366704471503449E-1
 1.091000000000000E+10   1.572535209227461E-1    9.254595262275689E-1
 1.092000000000000E+10   2.677870067148007E-1    9.017009426175145E-1
 1.093000000000000E+10   3.744091469232261E-1    8.657749394041406E-1
 1.094000000000000E+10   4.751799440856260E-1    8.186695731562500E-1
 1.095000000000000E+10   5.679169199203273E-1    7.610765265877860E-1
 1.096000000000000E+10   6.517254022313380E-1    6.939687212996007E-1
 1.097000000000000E+10   7.258274639548563E-1    6.186915178703475E-1
 1.098000000000000E+10   7.900016551093072E-1    5.360010109362583E-1
 1.099000000000000E+10   8.446524123689029E-1    4.466848876554377E-1
 1.100000000000000E+10   8.892569366100601E-1    3.517202233763499E-1
 1.101000000000000E+10   9.238227166691112E-1    2.523212316322819E-1
 1.102000000000000E+10   9.476966653640269E-1    1.493756751379358E-1
 1.103000000000000E+10   9.608287763954895E-1    4.505212539372112E-2
 1.104000000000000E+10   9.626492431930161E-1   -5.899007550196008E-2
 1.105000000000000E+10   9.532946725742494E-1   -1.606945185214261E-1
 1.106000000000000E+10   9.336225669362094E-1   -2.588860176780782E-1
 1.107000000000000E+10   9.038341198512455E-1   -3.524541525356971E-1
 1.108000000000000E+10   8.647761625716859E-1   -4.411497418550146E-1
 1.109000000000000E+10   8.170317818337641E-1   -5.248273142635009E-1
 1.110000000000000E+10   7.615627668170900E-1   -6.031348554936203E-1
 1.111000000000000E+10   6.988723429637496E-1   -6.760070730361867E-1
 1.112000000000000E+10   6.291016456579140E-1   -7.427601858255024E-1
 1.113000000000000E+10   5.531995438921552E-1   -8.026497566701963E-1
 1.114000000000000E+10   4.716158704228111E-1   -8.547869821447315E-1
 1.115000000000000E+10   3.858551283092919E-1   -8.980378114842898E-1
 1.116000000000000E+10   2.965234028169921E-1   -9.319856828030730E-1
 1.117000000000000E+10   2.047782493921288E-1   -9.559655365319927E-1
 1.118000000000000E+10   1.119089787452888E-1   -9.707265231056706E-1
 1.119000000000000E+10   1.839323557240984E-2   -9.760604663979288E-1
 1.120000000000000E+10  -7.559662536252956E-2   -9.725415047103408E-1
 1.121000000000000E+10  -1.694739843619704E-1   -9.601979442287218E-1
 1.122000000000000E+10  -2.620961704058131E-1   -9.391835701749973E-1
 1.123000000000000E+10  -3.529629997147231E-1   -9.093602376117293E-1
 1.124000000000000E+10  -4.407674805226861E-1   -8.704254854621908E-1
 1.125000000000000E+10  -5.241483659070472E-1   -8.230391123110027E-1
 1.126000000000000E+10  -6.018393198635009E-1   -7.672260983601414E-1
 1.127000000000000E+10  -6.730255917723853E-1   -7.036924751565210E-1
 1.128000000000000E+10  -7.373018385813919E-1   -6.332872370159608E-1
 1.129000000000000E+10  -7.939150601626673E-1   -5.568340723459816E-1
 1.130000000000000E+10  -8.428740070847405E-1   -4.746826897949833E-1
 1.131000000000000E+10  -8.836165223252903E-1   -3.877187161746363E-1
 1.132000000000000E+10  -9.165042116477110E-1   -2.967539969983994E-1
 1.133000000000000E+10  -9.404955102215675E-1   -2.025693080184790E-1
 1.134000000000000E+10  -9.551054864129207E-1   -1.061328192970749E-1
 1.135000000000000E+10  -9.598890484830032E-1   -8.317875661401337E-3
 1.136000000000000E+10  -9.542993105592461E-1    8.936983319590422E-2
 1.137000000000000E+10  -9.383805938219240E-1    1.855246846985535E-1
 1.138000000000000E+10  -9.121485083325213E-1    2.792441686844419E-1
 1.139000000000000E+10  -8.767517411553232E-1    3.692854768408236E-1
 1.140000000000000E+10  -8.325239457635938E-1    4.549874345209848E-1
 1.141000000000000E+10  -7.804093871963408E-1    5.357337965392297E-1
 1.142000000000000E+10  -7.208337890851233E-1    6.110823086078464E-1
 1.143000000000000E+10  -6.544154868320146E-1    6.803066391664138E-1
 1.144000000000000E+10  -5.814123512272894E-1    7.429128129483410E-1
 1.145000000000000E+10  -5.026645855894872E-1    7.976691291350967E-1
 1.146000000000000E+10  -4.187675760575791E-1    8.436543303658580E-1
 1.147000000000000E+10  -3.309644889969468E-1    8.805009067731950E-1
 1.148000000000000E+10  -2.403466553372538E-1    9.079509211933812E-1
 1.149000000000000E+10  -1.478392726169410E-1    9.258524979928162E-1
 1.150000000000000E+10  -5.471463010141162E-2    9.346419517910584E-1
 1.151000000000000E+10   3.825529224711550E-2    9.346568622439185E-1
 1.152000000000000E+10   1.303405075101942E-1    9.259724946214444E-1
 1.153000000000000E+10   2.208430366561577E-1    9.087879769090951E-1
 1.154000000000000E+10   3.089282006084415E-1    8.833735041447796E-1
 1.155000000000000E+10   3.937782306404833E-1    8.498502202504107E-1
 1.156000000000000E+10   4.750117753854882E-1    8.081105788098186E-1
 1.157000000000000E+10   5.511482384179381E-1    7.585431788120578E-1
 1.158000000000000E+10   6.215868585873781E-1    7.020614520584965E-1
 1.159000000000000E+10   6.857336434956283E-1    6.389892055629028E-1
 1.160000000000000E+10   7.431539421696147E-1    5.710823587742655E-1
 1.161000000000000E+10   7.934044201910593E-1    4.990230835707909E-1
 1.162000000000000E+10   8.368497301685278E-1    4.237536588299440E-1
 1.163000000000000E+10   8.731903908223388E-1    3.457380557421703E-1
 1.164000000000000E+10   9.023615630560796E-1    2.656429208298329E-1
 1.165000000000000E+10   9.237768040907361E-1    1.838126045885630E-1
 1.166000000000000E+10   9.372940499063217E-1    1.003668166727712E-1
 1.167000000000000E+10   9.426462886985836E-1    1.622062493124515E-2
 1.168000000000000E+10   9.396664067684953E-1   -6.827393882359171E-2
 1.169000000000000E+10   9.291679079616454E-1   -1.523385217003775E-1
 1.170000000000000E+10   9.110259819743677E-1   -2.349151784344420E-1
 1.171000000000000E+10   8.863022045701361E-1   -3.157199261185347E-1
 1.172000000000000E+10   8.551073462465640E-1   -3.934577763988227E-1
 1.173000000000000E+10   8.182471144282802E-1   -4.677335149299257E-1
 1.174000000000000E+10   7.759765629212783E-1   -5.378484558172455E-1
 1.175000000000000E+10   7.281512734351878E-1   -6.034694625240054E-1
 1.176000000000000E+10   6.749963881526003E-1   -6.639778267595833E-1
 1.177000000000000E+10   6.167350430363727E-1   -7.192569262171280E-1
 1.178000000000000E+10   5.533276500106064E-1   -7.691791406399906E-1
 1.179000000000000E+10   4.847789280393726E-1   -8.133090909770737E-1
 1.180000000000000E+10   4.120368847428558E-1   -8.516667196404795E-1
 1.181000000000000E+10   3.354216482178988E-1   -8.840373236969877E-1
 1.182000000000000E+10   2.561103718640476E-1   -9.099464122398313E-1
 1.183000000000000E+10   1.749841821174702E-1   -9.299028036539392E-1
 1.184000000000000E+10   9.242608003319180E-2   -9.431694574194754E-1
 1.185000000000000E+10   9.032067292508316E-3   -9.493156304427635E-1
 1.186000000000000E+10  -7.476478045250383E-2   -9.483693167837660E-1
 1.187000000000000E+10  -1.583756465478409E-1   -9.393416280227785E-1
 1.188000000000000E+10  -2.414218968329472E-1   -9.222190615069268E-1
 1.189000000000000E+10  -3.232856448712974E-1   -8.967681611508431E-1
 1.190000000000000E+10  -4.033808053374072E-1   -8.632272790911356E-1
 1.191000000000000E+10  -4.812006592816007E-1   -8.220086254053799E-1
 1.192000000000000E+10  -5.562340792051692E-1   -7.733006579525820E-1
 1.193000000000000E+10  -6.271227252357545E-1   -7.176908461117248E-1
 1.194000000000000E+10  -6.933648013377430E-1   -6.560529984570767E-1
 1.195000000000000E+10  -7.536713165231428E-1   -5.882433160809011E-1
 1.196000000000000E+10  -8.078126716243641E-1   -5.145729560685236E-1
 1.197000000000000E+10  -8.543763770163995E-1   -4.344784237467120E-1
 1.198000000000000E+10  -8.931590099299421E-1   -3.493236089101626E-1
 1.199000000000000E+10  -9.227883059315586E-1   -2.586355436650151E-1
 1.200000000000000E+10  -9.433000315904353E-1   -1.631387602533859E-1
 1.201000000000000E+10  -9.538096378125431E-1   -6.430733764473864E-2
 1.202000000000000E+10  -9.541913987870656E-1    3.750789497942960E-2
 1.203000000000000E+10  -9.442924064686985E-1    1.398343461887867E-1
 1.204000000000000E+10  -9.241072763852110E-1    2.412094939773672E-1
 1.205000000000000E+10  -8.934096243632270E-1    3.400300377134884E-1
 1.206000000000000E+10  -8.521552527663295E-1    4.349338961195456E-1
 1.207000000000000E+10  -8.007106459774475E-1    5.247869243101467E-1
 1.208000000000000E+10  -7.386114355173746E-1    6.083675473700019E-1
 1.209000000000000E+10  -6.661084856929045E-1    6.847873814058401E-1
 1.210000000000000E+10  -5.841479566713640E-1    7.529712646644378E-1
 1.211000000000000E+10  -4.935138366553919E-1    8.118376826532254E-1
 1.212000000000000E+10  -3.957043737436556E-1    8.610833608525817E-1
 1.213000000000000E+10  -2.925960926577215E-1    8.994409026913879E-1
 1.214000000000000E+10  -1.864950611903163E-1    9.265955192117684E-1
 1.215000000000000E+10  -7.835708943631005E-2    9.416184939028428E-1
 1.216000000000000E+10   2.942668006357052E-2    9.444082763937447E-1
 1.217000000000000E+10   1.354308203960918E-1    9.344450581763869E-1
 1.218000000000000E+10   2.388126916588575E-1    9.119861710183580E-1
 1.219000000000000E+10   3.382041270115415E-1    8.769608803545568E-1
 1.220000000000000E+10   4.328288988501920E-1    8.302256745227733E-1
 1.221000000000000E+10   5.217759020484046E-1    7.728082978465195E-1
 1.222000000000000E+10   6.038227404438908E-1    7.059209450652337E-1
 1.223000000000000E+10   6.782891212170149E-1    6.313217697855761E-1
 1.224000000000000E+10   7.440170673253530E-1    5.503089079351738E-1
 1.225000000000000E+10   7.998689925120339E-1    4.649675806737579E-1
 1.226000000000000E+10   8.450991967598470E-1    3.766280722475253E-1
 1.227000000000000E+10   8.800742176029073E-1    2.862616805899201E-1
 1.228000000000000E+10   9.040015605463914E-1    1.943536247724827E-1
 1.229000000000000E+10   9.171720072793379E-1    1.015495780153379E-1
 1.230000000000000E+10   9.201160281776538E-1    8.388181825221575E-3
 1.231000000000000E+10   9.131291535288740E-1   -8.463551990309846E-2
 1.232000000000000E+10   8.967625004491341E-1   -1.764689796398275E-1
 1.233000000000000E+10   8.719016188369725E-1   -2.662759248615620E-1
 1.234000000000000E+10   8.394969122899535E-1   -3.524967585184225E-1
 1.235000000000000E+10   8.003498509741203E-1   -4.340344480914349E-1
 1.236000000000000E+10   7.551838639427700E-1   -5.095571723327800E-1
 1.237000000000000E+10   7.049881709167158E-1   -5.785455122651940E-1
 1.238000000000000E+10   6.496320482458122E-1   -6.404464878178555E-1
 1.239000000000000E+10   5.896881352246245E-1   -6.955219779973086E-1
 1.240000000000000E+10   5.251509190350728E-1   -7.437015960206941E-1
 1.241000000000000E+10   4.563159560459953E-1   -7.853823702595578E-1
 1.242000000000000E+10   3.834582814220623E-1   -8.209887892960636E-1
 1.243000000000000E+10   3.078146731189673E-1   -8.507063992991837E-1
 1.244000000000000E+10   2.301871771451848E-1   -8.740669719903054E-1
 1.245000000000000E+10   1.517381134634137E-1   -8.914052298002216E-1
 1.246000000000000E+10   7.330634691161893E-2   -9.026065364985575E-1
 1.247000000000000E+10  -3.954769680889160E-3   -9.070487700579906E-1
 1.248000000000000E+10  -7.950917802736618E-2   -9.049977529069136E-1
 1.249000000000000E+10  -1.533704531319297E-1   -8.962449813210719E-1
 1.250000000000000E+10  -2.252917084965898E-1   -8.808912802979146E-1
