#  HZ   S   RI   R     50.00 
! Rohde & Schwarz Vector Network Analyzer 
! Rohde-Schwarz,ZNA43-4Port,1332450044101932,2.92
! Created: UTC 6/1/2026, 11:33:52 AM
! freq[Hz]                re:S11                  im:S11
 8.000000000000000E9     3.016487613368715E-1    1.667486000248189E-1
 8.010000000000000E9     2.824351219835213E-1    1.314158937160309E-1
 8.020000000000000E9     2.573884746035049E-1    9.998949567583247E-2
 8.030000000000000E9     2.276460556207283E-1    7.328751459718284E-2
 8.040000000000000E9     1.944244177476546E-1    5.221600458440236E-2
 8.050000000000000E9     1.593301035578016E-1    3.751457344545883E-2
 8.060000000000000E9     1.236958860239621E-1    2.987638036137416E-2
 8.070000000000000E9     8.894527314983462E-2    2.976378268319324E-2
 8.080000000000000E9     5.643526207867391E-2    3.699144974283020E-2
 8.090000000000000E9     2.732359232199850E-2    5.132445801068854E-2
 8.100000000000000E9     2.434657854530520E-3    7.186704874182273E-2
 8.110000000000000E9    -1.771041498095611E-2    9.751983144421560E-2
 8.120000000000000E9    -3.262699381639003E-2    1.270132637576505E-1
 8.130000000000000E9    -4.187653376222704E-2    1.586318872498405E-1
 8.140000000000000E9    -4.515471843555672E-2    1.908884530701999E-1
 8.150000000000000E9    -4.235752367384678E-2    2.225007189803902E-1
 8.160000000000000E9    -3.356929150666559E-2    2.523175554996867E-1
 8.170000000000000E9    -1.884854491187110E-2    2.795335198598775E-1
 8.180000000000000E9     1.464164345746456E-3    3.035520602879498E-1
 8.190000000000000E9     2.671375540673384E-2    3.240633236927074E-1
 8.200000000000000E9     5.612501398008603E-2    3.407600102395594E-1
 8.210000000000000E9     8.851698604689513E-2    3.535654822356495E-1
 8.220000000000000E9     1.230250930692453E-1    3.622233246545571E-1
 8.230000000000000E9     1.585121210566609E-1    3.665572382496421E-1
 8.240000000000000E9     1.940830480602931E-1    3.662381935552477E-1
 8.250000000000000E9     2.289223065358821E-1    3.612369618766040E-1
 8.260000000000000E9     2.625800202362348E-1    3.511149598700152E-1
 8.270000000000000E9     2.947359215238762E-1    3.357982109105330E-1
 8.280000000000000E9     3.251569072935280E-1    3.154281896099012E-1
 8.290000000000000E9     3.537438351186143E-1    2.901567465425396E-1
 8.300000000000000E9     3.801982910168721E-1    2.606999146659252E-1
 8.310000000000000E9     4.040593639095978E-1    2.278169047297727E-1
 8.320000000000000E9     4.249703562293526E-1    1.922056002218164E-1
 8.330000000000000E9     4.424412303682502E-1    1.546192740643448E-1
 8.340000000000000E9     4.558455837522122E-1    1.157041542246754E-1
 8.350000000000000E9     4.645567846235088E-1    7.598110082634436E-2
 8.360000000000000E9     4.680792731513447E-1    3.560386384473022E-2
 8.370000000000000E9     4.660830386271021E-1   -5.213215923061169E-3
 8.380000000000000E9     4.585301742070875E-1   -4.625237056575050E-2
 8.390000000000000E9     4.455342602031014E-1   -8.724167105488832E-2
 8.400000000000000E9     4.273137985190042E-1   -1.277847462841727E-1
 8.410000000000000E9     4.043886257424029E-1   -1.672831000188321E-1
 8.420000000000000E9     3.772875132891465E-1   -2.048419282635952E-1
 8.430000000000000E9     3.464558463413279E-1   -2.395231938307359E-1
 8.440000000000000E9     3.123291934490343E-1   -2.704027260320100E-1
 8.450000000000000E9     2.753638920190982E-1   -2.965412803429379E-1
 8.460000000000000E9     2.356507681097791E-1   -3.170901088333097E-1
 8.470000000000000E9     1.933925141642387E-1   -3.317857615473781E-1
 8.480000000000000E9     1.489027130892741E-1   -3.402683029035329E-1
 8.490000000000000E9     1.026838650779312E-1   -3.425851100779240E-1
 8.500000000000000E9     5.533221640014841E-2   -3.390015691872071E-1
 8.510000000000000E9     7.952886373452688E-3   -3.294738034500060E-1
 8.520000000000000E9    -3.848128023631060E-2   -3.147241680847200E-1
 8.530000000000000E9    -8.249253730361865E-2   -2.949905238289917E-1
 8.540000000000000E9    -1.228652648819088E-1   -2.705549085249165E-1
 8.550000000000000E9    -1.585616712669872E-1   -2.417395998310861E-1
 8.560000000000000E9    -1.887006830044743E-1   -2.087711387460006E-1
 8.570000000000000E9    -2.126968144723825E-1   -1.720470360468952E-1
 8.580000000000000E9    -2.305143147105946E-1   -1.319678833762505E-1
 8.590000000000000E9    -2.420104714513913E-1   -8.932794473256216E-2
 8.600000000000000E9    -2.474273091479888E-1   -4.488341807975216E-2
 8.610000000000000E9    -2.471441653538893E-1    1.387129218763874E-4
 8.620000000000000E9    -2.413473768330391E-1    4.442346581529338E-2
 8.630000000000000E9    -2.303259926651037E-1    8.675934395415660E-2
 8.640000000000000E9    -2.142267259486631E-1    1.259035230306644E-1
 8.650000000000000E9    -1.932562754341854E-1    1.609135914752307E-1
 8.660000000000000E9    -1.676870522848614E-1    1.911206345267776E-1
 8.670000000000000E9    -1.378027068806092E-1    2.161357851056042E-1
 8.680000000000000E9    -1.040302596853895E-1    2.357171211640008E-1
 8.690000000000000E9    -6.718084592213094E-2    2.499721918052527E-1
 8.700000000000000E9    -2.813609268315777E-2    2.590019174377515E-1
 8.710000000000000E9     1.207729207496169E-2    2.629260020480030E-1
 8.720000000000000E9     5.218836753525306E-2    2.617863318155890E-1
 8.730000000000000E9     9.092864899360563E-2    2.555288691791974E-1
 8.740000000000000E9     1.274264285241483E-1    2.441705644103450E-1
 8.750000000000000E9     1.608098264758500E-1    2.276566757639862E-1
 8.760000000000000E9     1.904796032173283E-1    2.058863733204354E-1
 8.770000000000000E9     2.161209209526050E-1    1.791810707102808E-1
 8.780000000000000E9     2.375491913710705E-1    1.478722596260595E-1
 8.790000000000000E9     2.545712856680984E-1    1.125976637011441E-1
 8.800000000000000E9     2.670908242406578E-1    7.435525327691989E-2
 8.810000000000000E9     2.748017832817361E-1    3.402524677953150E-2
 8.820000000000000E9     2.775013058815048E-1   -7.067775122394837E-3
 8.830000000000000E9     2.748256859181017E-1   -4.798991322314120E-2
 8.840000000000000E9     2.664267728984809E-1   -8.758164803181807E-2
 8.850000000000000E9     2.521135798828361E-1   -1.252699697834479E-1
 8.860000000000000E9     2.316324266577099E-1   -1.603556602051973E-1
 8.870000000000000E9     2.052735703492723E-1   -1.924190729981130E-1
 8.880000000000000E9     1.734473573065019E-1   -2.209422784273997E-1
 8.890000000000000E9     1.367871264217380E-1   -2.457342876805698E-1
 8.900000000000000E9     9.607979124052912E-2   -2.663139665819347E-1
 8.910000000000000E9     5.251319725810825E-2   -2.820829534388624E-1
 8.920000000000000E9     7.111638146613014E-3   -2.925461835916690E-1
 8.930000000000000E9    -3.902743427010744E-2   -2.970204817259026E-1
 8.940000000000000E9    -8.504174702537462E-2   -2.951798800904931E-1
 8.950000000000000E9    -1.301800926169123E-1   -2.866714348760148E-1
 8.960000000000000E9    -1.737623793728460E-1   -2.713074263597828E-1
 8.970000000000000E9    -2.154556422993708E-1   -2.493568964293579E-1
 8.980000000000000E9    -2.546449624990241E-1   -2.213549870435478E-1
 8.990000000000000E9    -2.908515374799777E-1   -1.879635045984380E-1
 9.000000000000000E9    -3.232199647663674E-1   -1.500207518632045E-1
 9.010000000000000E9    -3.516151658509278E-1   -1.085976861220772E-1
 9.020000000000000E9    -3.751541081484527E-1   -6.463131873587563E-2
 9.030000000000000E9    -3.929858072547850E-1   -1.885035720415748E-2
 9.040000000000000E9    -4.046879017575636E-1    2.782674822274313E-2
 9.050000000000000E9    -4.101136137576019E-1    7.503151359194599E-2
 9.060000000000000E9    -4.091380701873874E-1    1.221383586077077E-1
 9.070000000000000E9    -4.017751040255060E-1    1.690138628296926E-1
 9.080000000000000E9    -3.886104191278742E-1    2.150904611504558E-1
 9.090000000000000E9    -3.699985926733022E-1    2.599932122124923E-1
 9.100000000000000E9    -3.466616298325819E-1    3.031543072797545E-1
 9.110000000000000E9    -3.192248318894053E-1    3.438750570241540E-1
 9.120000000000000E9    -2.883028033634191E-1    3.812665987686488E-1
 9.130000000000000E9    -2.545295783698879E-1    4.146368604595942E-1
 9.140000000000000E9    -2.182051065126121E-1    4.434658413928322E-1
 9.150000000000000E9    -1.797712659538397E-1    4.673696029865443E-1
 9.160000000000000E9    -1.394237845416902E-1    4.860625676952394E-1
 9.170000000000000E9    -9.739478252883214E-2    4.996590289843598E-1
 9.180000000000000E9    -5.391060743681329E-2    5.082990527121967E-1
 9.190000000000000E9    -9.505153415766882E-3    5.122502539152030E-1
 9.200000000000000E9     3.555984158123556E-2    5.116544394734235E-1
 9.210000000000000E9     8.039573778336881E-2    5.068288801813117E-1
 9.220000000000000E9     1.244720596735456E-1    4.978183907837660E-1
 9.230000000000000E9     1.671529679927320E-1    4.846340568782501E-1
 9.240000000000000E9     2.076674913048465E-1    4.672433619545276E-1
 9.250000000000000E9     2.454275728415162E-1    4.458016899660548E-1
 9.260000000000000E9     2.799255810764625E-1    4.204460653713745E-1
 9.270000000000000E9     3.109551499371510E-1    3.913455146148010E-1
 9.280000000000000E9     3.383309396059369E-1    3.588364682807951E-1
 9.290000000000000E9     3.618982192702432E-1    3.231046603243306E-1
 9.300000000000000E9     3.815898651858466E-1    2.846389468275371E-1
 9.310000000000000E9     3.970457449451127E-1    2.439375452558558E-1
 9.320000000000000E9     4.079982070683715E-1    2.015755957634153E-1
 9.330000000000000E9     4.141156182064689E-1    1.581802782259243E-1
 9.340000000000000E9     4.150126029106861E-1    1.144617721767070E-1
 9.350000000000000E9     4.102121974476374E-1    7.120657813666778E-2
 9.360000000000000E9     3.995900535107189E-1    2.891300687456255E-2
 9.370000000000000E9     3.831927312006582E-1   -1.146272329872142E-2
 9.380000000000000E9     3.609531893049819E-1   -4.950499637307702E-2
 9.390000000000000E9     3.330385986207088E-1   -8.426141448252072E-2
 9.400000000000000E9     2.998868113498142E-1   -1.148063230591610E-1
 9.410000000000000E9     2.620707768987028E-1   -1.396391863344583E-1
 9.420000000000000E9     2.225979868871117E-1   -1.570931276112323E-1
 9.430000000000000E9     1.848250985435932E-1   -1.713361388375512E-1
 9.440000000000000E9     1.425309946581368E-1   -1.840672424879985E-1
 9.450000000000000E9     9.587724649621134E-2   -1.892702216623020E-1
 9.460000000000000E9     4.837201238097552E-2   -1.859804176551147E-1
 9.470000000000000E9     1.763648349264802E-3   -1.748905546796297E-1
 9.480000000000000E9    -4.264261461841438E-2   -1.562540938793229E-1
 9.490000000000000E9    -8.365210525805857E-2   -1.307105542135261E-1
 9.500000000000000E9    -1.199684472141715E-1   -9.905662149869809E-2
 9.510000000000000E9    -1.511516486417553E-1   -6.182575378506210E-2
 9.520000000000000E9    -1.762212947880745E-1   -2.005756361619545E-2
 9.530000000000000E9    -1.943119939577591E-1    2.521398991454489E-2
 9.540000000000000E9    -2.051682701685744E-1    7.292290005276876E-2
 9.550000000000000E9    -2.086741040869387E-1    1.219144065697911E-1
 9.560000000000000E9    -2.050076846295072E-1    1.709801618917189E-1
 9.570000000000000E9    -1.944227219425637E-1    2.189562945763283E-1
 9.580000000000000E9    -1.773601130778558E-1    2.648072972701969E-1
 9.590000000000000E9    -1.545471752565962E-1    3.075578965332520E-1
 9.600000000000000E9    -1.263844612400755E-1    3.463757115183659E-1
 9.610000000000000E9    -9.354462665222205E-2    3.808090484914199E-1
 9.620000000000000E9    -5.663126752071301E-2    4.102016421053328E-1
 9.630000000000000E9    -1.634199144970078E-2    4.342080882236435E-1
 9.640000000000000E9     2.660771315149817E-2    4.529341672571382E-1
 9.650000000000000E9     7.138863608526200E-2    4.661130883306241E-1
 9.660000000000000E9     1.170979159264695E-1    4.740760300456692E-1
 9.670000000000000E9     1.632500109398404E-1    4.771155822663889E-1
 9.680000000000000E9     2.089218939518217E-1    4.753915178275824E-1
 9.690000000000000E9     2.535835301830238E-1    4.692360683725699E-1
 9.700000000000000E9     2.968007979155457E-1    4.585226663548254E-1
 9.710000000000000E9     3.380603124722402E-1    4.435191224199750E-1
 9.720000000000000E9     3.772111725712835E-1    4.243441102988800E-1
 9.730000000000000E9     4.139249808792437E-1    4.011201537423167E-1
 9.740000000000000E9     4.480544012488519E-1    3.741925281632990E-1
 9.750000000000000E9     4.793893881277689E-1    3.438833217552643E-1
 9.760000000000000E9     5.078647342941450E-1    3.107071019666269E-1
 9.770000000000000E9     5.333626795360698E-1    2.753305634632379E-1
 9.780000000000000E9     5.556825584497417E-1    2.381484294212990E-1
 9.790000000000000E9     5.747305576638284E-1    1.996233267823931E-1
 9.800000000000000E9     5.902106640791425E-1    1.600942274361065E-1
 9.810000000000000E9     6.019847794508286E-1    1.196323505869586E-1
 9.820000000000000E9     6.097780646966847E-1    7.836349943434549E-2
 9.830000000000000E9     6.135402519891421E-1    3.626235594489186E-2
 9.840000000000000E9     6.131233835249990E-1   -6.562045806794972E-3
 9.850000000000000E9     6.085050161877614E-1   -4.991282265069607E-2
 9.860000000000000E9     5.998662353105354E-1   -9.339194283749298E-2
 9.870000000000000E9     5.874819381482169E-1   -1.364941705769491E-1
 9.880000000000000E9     5.715103052247058E-1   -1.786889624493085E-1
 9.890000000000000E9     5.523201958458094E-1   -2.193593751550486E-1
 9.900000000000000E9     5.296729638916012E-1   -2.580552191734907E-1
 9.910000000000000E9     5.037322725633158E-1   -2.942755945089769E-1
 9.920000000000000E9     4.741376791092875E-1   -3.277003622200861E-1
 9.930000000000000E9     4.407437954334329E-1   -3.581318913080612E-1
 9.940000000000000E9     4.035089557647595E-1   -3.850990221475838E-1
 9.950000000000000E9     3.624698772200199E-1   -4.085309307954983E-1
 9.960000000000000E9     3.178408762934432E-1   -4.281111551353806E-1
 9.970000000000000E9     2.703197525093700E-1   -4.434954187990207E-1
 9.980000000000000E9     2.205769007515949E-1   -4.543867602253940E-1
 9.990000000000000E9     1.694921924964057E-1   -4.603064593027305E-1
 1.000000000000000E+10   1.181427228181780E-1   -4.606493881697687E-1
 1.001000000000000E+10   6.678306438379643E-2   -4.553795088571992E-1
 1.002000000000000E+10   1.659404809635266E-2   -4.433702625902293E-1
 1.003000000000000E+10  -3.208506813936417E-2   -4.244465425111762E-1
 1.004000000000000E+10  -7.865901476980097E-2   -3.983373199610931E-1
 1.005000000000000E+10  -1.224262329524829E-1   -3.650763331202974E-1
 1.006000000000000E+10  -1.627848538836884E-1   -3.248958357118103E-1
 1.007000000000000E+10  -1.986010065262583E-1   -2.788502084132984E-1
 1.008000000000000E+10  -2.290025037100338E-1   -2.276745199645960E-1
 1.009000000000000E+10  -2.528705042786225E-1   -1.727541259627111E-1
 1.010000000000000E+10  -2.692266512976255E-1   -1.154348410095621E-1
 1.011000000000000E+10  -2.769475577846728E-1   -5.688837657389040E-2
 1.012000000000000E+10  -2.755914919220285E-1    1.594369595940243E-3
 1.013000000000000E+10  -2.645685281177472E-1    5.904303395658518E-2
 1.014000000000000E+10  -2.440923555759025E-1    1.143277786593316E-1
 1.015000000000000E+10  -2.145186322489028E-1    1.666492939516478E-1
 1.016000000000000E+10  -1.768760629948019E-1    2.148682813740138E-1
 1.017000000000000E+10  -1.324509310509482E-1    2.580255281048363E-1
 1.018000000000000E+10  -8.278305169381295E-2    2.950762901973206E-1
 1.019000000000000E+10  -2.949119823479473E-2    3.249580303830500E-1
 1.020000000000000E+10   2.578271210855448E-2    3.469522544132333E-1
 1.021000000000000E+10   8.182409566100987E-2    3.605004322199053E-1
 1.022000000000000E+10   1.379183338490231E-1    3.652961810763312E-1
 1.023000000000000E+10   1.932202477290592E-1    3.614724960887871E-1
 1.024000000000000E+10   2.471136278488401E-1    3.490806868634507E-1
 1.025000000000000E+10   2.993739259980962E-1    3.290194497574107E-1
 1.026000000000000E+10   3.491287160757375E-1    3.020134289543208E-1
 1.027000000000000E+10   3.958882386732664E-1    2.693547238793854E-1
 1.028000000000000E+10   4.386699656518784E-1    2.321820240739275E-1
 1.029000000000000E+10   4.767215721277965E-1    1.918531597365584E-1
 1.030000000000000E+10   5.094005954140667E-1    1.490136675200461E-1
 1.031000000000000E+10   5.360768123138169E-1    1.043085381637388E-1
 1.032000000000000E+10   5.565706863130190E-1    5.807129602008464E-2
 1.033000000000000E+10   5.706168838592288E-1    1.031392995861572E-2
 1.034000000000000E+10   5.785779258404293E-1   -3.876789092859501E-2
 1.035000000000000E+10   5.805738476407103E-1   -8.886139240700607E-2
 1.036000000000000E+10   5.771390530676523E-1   -1.399866894439091E-1
 1.037000000000000E+10   5.688942367667177E-1   -1.914037613688164E-1
 1.038000000000000E+10   5.562915331209258E-1   -2.423600299786957E-1
 1.039000000000000E+10   5.397609152276965E-1   -2.917458754927417E-1
 1.040000000000000E+10   5.195475264685528E-1   -3.387872547776317E-1
 1.041000000000000E+10   4.958024213656629E-1   -3.827746961670880E-1
 1.042000000000000E+10   4.682920054541456E-1   -4.231979051776911E-1
 1.043000000000000E+10   4.369119202310758E-1   -4.597602529497661E-1
 1.044000000000000E+10   4.013292404977949E-1   -4.926930434737825E-1
 1.045000000000000E+10   3.617209364106032E-1   -5.219888047357608E-1
 1.046000000000000E+10   3.180529554646321E-1   -5.478941845773312E-1
 1.047000000000000E+10   2.709448927883819E-1   -5.704489355427045E-1
 1.048000000000000E+10   2.212391254978080E-1   -5.895566173436360E-1
 1.049000000000000E+10   1.695948694860598E-1   -6.050035214176102E-1
 1.050000000000000E+10   1.170469055317008E-1   -6.163195026875478E-1
 1.051000000000000E+10   6.441645462942981E-2   -6.231497466658519E-1
 1.052000000000000E+10   1.209494759882947E-2   -6.248933785507703E-1
 1.053000000000000E+10  -3.965044214635660E-2   -6.210452626472617E-1
 1.054000000000000E+10  -9.065760742083018E-2   -6.113266412489775E-1
 1.055000000000000E+10  -1.412617781123713E-1   -5.954364473449832E-1
 1.056000000000000E+10  -1.913071160067160E-1   -5.734843485024321E-1
 1.057000000000000E+10  -2.406898420604153E-1   -5.456978856029465E-1
 1.058000000000000E+10  -2.886350031131192E-1   -5.125616201971079E-1
 1.059000000000000E+10  -3.345508078392336E-1   -4.744179537362566E-1
 1.060000000000000E+10  -3.773591881179879E-1   -4.319999760765173E-1
 1.061000000000000E+10  -4.160090637226548E-1   -3.857168477888742E-1
 1.062000000000000E+10  -4.493046390756977E-1   -3.362871053423462E-1
 1.063000000000000E+10  -4.763567801166881E-1   -2.834174727854027E-1
 1.064000000000000E+10  -4.964558669937612E-1   -2.275496736685478E-1
 1.065000000000000E+10  -5.093775756394693E-1   -1.687029382231243E-1
 1.066000000000000E+10  -5.149598916429009E-1   -1.071426303132732E-1
 1.067000000000000E+10  -5.129883334228030E-1   -4.328485424542615E-2
 1.068000000000000E+10  -5.037279672183225E-1    2.191335970275812E-2
 1.069000000000000E+10  -4.872130453547695E-1    8.734075177145145E-2
 1.070000000000000E+10  -4.635565414158395E-1    1.514417667702046E-1
 1.071000000000000E+10  -4.331856685359896E-1    2.123362451044435E-1
 1.072000000000000E+10  -3.960087113691247E-1    2.685654750952918E-1
 1.073000000000000E+10  -3.524544394631738E-1    3.187942940878108E-1
 1.074000000000000E+10  -3.026668905856334E-1    3.621181571673111E-1
 1.075000000000000E+10  -2.470370818808686E-1    3.978605048368394E-1
 1.076000000000000E+10  -1.860589348922386E-1    4.256440052851759E-1
 1.077000000000000E+10  -1.204332552609241E-1    4.454511868038386E-1
 1.078000000000000E+10  -5.135621044915004E-2    4.571698449030029E-1
 1.079000000000000E+10   1.962174934283972E-2    4.606176270264948E-1
 1.080000000000000E+10   9.074876096764506E-2    4.559235992404074E-1
 1.081000000000000E+10   1.603106961888385E-1    4.428758383776967E-1
 1.082000000000000E+10   2.266354859115442E-1    4.217417733418947E-1
 1.083000000000000E+10   2.882645745918623E-1    3.924566373623384E-1
 1.084000000000000E+10   3.442964520408533E-1    3.554709723733316E-1
 1.085000000000000E+10   3.941764266665488E-1    3.110623408831795E-1
 1.086000000000000E+10   4.375136256309474E-1    2.597729032863464E-1
 1.087000000000000E+10   4.742164616057872E-1    2.023389251958105E-1
 1.088000000000000E+10   5.039570548367558E-1    1.399954913427271E-1
 1.089000000000000E+10   5.267370743696795E-1    7.369580912780989E-2
 1.090000000000000E+10   5.418849627699698E-1    4.833189908454651E-3
 1.091000000000000E+10   5.490163368916900E-1   -6.514099589257359E-2
 1.092000000000000E+10   5.477497038993830E-1   -1.348831770979103E-1
 1.093000000000000E+10   5.379762764218041E-1   -2.032946418611385E-1
 1.094000000000000E+10   5.191638599529768E-1   -2.702011330549226E-1
 1.095000000000000E+10   4.909259807818898E-1   -3.352086014136212E-1
 1.096000000000000E+10   4.519271234978535E-1   -3.984772122738452E-1
 1.097000000000000E+10   4.000293184916241E-1   -4.605241268760158E-1
 1.098000000000000E+10   3.283384041232447E-1   -5.190831573280615E-1
 1.099000000000000E+10   2.212257796013049E-1   -5.603817090921307E-1
 1.100000000000000E+10   8.787974070578017E-2   -5.084305357735247E-1
 1.101000000000000E+10   1.215035725482038E-1   -4.051913115758799E-1
 1.102000000000000E+10   1.648164044130426E-1   -4.564418105320748E-1
 1.103000000000000E+10   1.353545151145963E-1   -5.165810473044249E-1
 1.104000000000000E+10   8.225814762595959E-2   -5.550934824301630E-1
 1.105000000000000E+10   2.213077169934409E-2   -5.768796543874071E-1
 1.106000000000000E+10  -4.041068516017774E-2   -5.861734110324109E-1
 1.107000000000000E+10  -1.036791054788053E-1   -5.851426459126257E-1
 1.108000000000000E+10  -1.666818216991078E-1   -5.752550818643739E-1
 1.109000000000000E+10  -2.287988428403916E-1   -5.573616811075565E-1
 1.110000000000000E+10  -2.891099454372139E-1   -5.323352274879498E-1
 1.111000000000000E+10  -3.467125209643503E-1   -5.004836766754156E-1
 1.112000000000000E+10  -4.002656697729114E-1   -4.622851474186996E-1
 1.113000000000000E+10  -4.489345105520134E-1   -4.183884539934565E-1
 1.114000000000000E+10  -4.919572028339635E-1   -3.691808865092214E-1
 1.115000000000000E+10  -5.286923751173789E-1   -3.152572328854596E-1
 1.116000000000000E+10  -5.590485154417713E-1   -2.572093945794198E-1
 1.117000000000000E+10  -5.825844239103888E-1   -1.953782142005583E-1
 1.118000000000000E+10  -5.994800715696815E-1   -1.308060182306579E-1
 1.119000000000000E+10  -6.095376991161746E-1   -6.408391634814725E-2
 1.120000000000000E+10  -6.126412810478602E-1    4.061972831260217E-3
 1.121000000000000E+10  -6.085159662961221E-1    7.247014746838046E-2
 1.122000000000000E+10  -5.969240092437241E-1    1.402419038554571E-1
 1.123000000000000E+10  -5.777023751777901E-1    2.062128975900193E-1
 1.124000000000000E+10  -5.510686251033827E-1    2.693638458463286E-1
 1.125000000000000E+10  -5.172854801829735E-1    3.289421207917806E-1
 1.126000000000000E+10  -4.767683941067513E-1    3.840629171488665E-1
 1.127000000000000E+10  -4.301525697066696E-1    4.344484753597657E-1
 1.128000000000000E+10  -3.778927306449227E-1    4.797099754514078E-1
 1.129000000000000E+10  -3.206879954224595E-1    5.195037514675558E-1
 1.130000000000000E+10  -2.591901745063760E-1    5.531659441933198E-1
 1.131000000000000E+10  -1.945210702042254E-1    5.801952255902096E-1
 1.132000000000000E+10  -1.273760693052471E-1    5.999849521842930E-1
 1.133000000000000E+10  -5.865827425236284E-2    6.121676295173312E-1
 1.134000000000000E+10   1.068235066574893E-2    6.165666617507539E-1
 1.135000000000000E+10   7.967637871746237E-2    6.130836910886659E-1
 1.136000000000000E+10   1.476779230237798E-1    6.017195079126841E-1
 1.137000000000000E+10   2.137433858256412E-1    5.831708353135484E-1
 1.138000000000000E+10   2.774075707100442E-1    5.578353430492914E-1
 1.139000000000000E+10   3.380420573938731E-1    5.258550680323461E-1
 1.140000000000000E+10   3.950549068526880E-1    4.878511398537042E-1
 1.141000000000000E+10   4.478547827685591E-1    4.441115416348129E-1
 1.142000000000000E+10   4.956034079126079E-1    3.950803547766837E-1
 1.143000000000000E+10   5.374560362572702E-1    3.412516132500415E-1
 1.144000000000000E+10   5.730490198815417E-1    2.831599555771619E-1
 1.145000000000000E+10   6.018362408857856E-1    2.215633871337299E-1
 1.146000000000000E+10   6.237985945125153E-1    1.574235324855568E-1
 1.147000000000000E+10   6.388105861299717E-1    9.121327493761305E-2
 1.148000000000000E+10   6.471565370706801E-1    2.372623940157692E-2
 1.149000000000000E+10   6.483908278693890E-1   -4.419372353379291E-2
 1.150000000000000E+10   6.429793833981517E-1   -1.118815539052213E-1
 1.151000000000000E+10   6.306403420675386E-1   -1.788278414306238E-1
 1.152000000000000E+10   6.112651729355775E-1   -2.440626528858819E-1
 1.153000000000000E+10   5.848867002438045E-1   -3.068637947080801E-1
 1.154000000000000E+10   5.515898392637384E-1   -3.665715381611356E-1
 1.155000000000000E+10   5.118192725436910E-1   -4.222952058203107E-1
 1.156000000000000E+10   4.659500306313806E-1   -4.735027884936006E-1
 1.157000000000000E+10   4.148053839802320E-1   -5.196478506393881E-1
 1.158000000000000E+10   3.590643318379302E-1   -5.602928876908035E-1
 1.159000000000000E+10   2.992428811694682E-1   -5.949608652569309E-1
 1.160000000000000E+10   2.359026757258876E-1   -6.235174470579091E-1
 1.161000000000000E+10   1.697497613335417E-1   -6.452267039106063E-1
 1.162000000000000E+10   1.010352975066938E-1   -6.596325876494364E-1
 1.163000000000000E+10   3.056733140177189E-2   -6.663205404457642E-1
 1.164000000000000E+10  -4.106952911042874E-2   -6.646858641642490E-1
 1.165000000000000E+10  -1.129517483708483E-1   -6.550371335735027E-1
 1.166000000000000E+10  -1.840280104347779E-1   -6.369690478069934E-1
 1.167000000000000E+10  -2.533620139437148E-1   -6.109727018584691E-1
 1.168000000000000E+10  -3.197422086023425E-1   -5.776644123457170E-1
 1.169000000000000E+10  -3.824523823570759E-1   -5.371245626478304E-1
 1.170000000000000E+10  -4.406710781039863E-1   -4.899145946328624E-1
 1.171000000000000E+10  -4.929962003334906E-1   -4.361908994896588E-1
 1.172000000000000E+10  -5.388573361884504E-1   -3.764841868261156E-1
 1.173000000000000E+10  -5.774230620074419E-1   -3.109002777258906E-1
 1.174000000000000E+10  -6.079584344181546E-1   -2.401473093521704E-1
 1.175000000000000E+10  -6.297658721855491E-1   -1.650701457862637E-1
 1.176000000000000E+10  -6.428786291747068E-1   -8.652344571537114E-2
 1.177000000000000E+10  -6.465433876459240E-1   -5.582506715145246E-3
 1.178000000000000E+10  -6.409008283277496E-1    7.587096859431636E-2
 1.179000000000000E+10  -6.258404997307592E-1    1.563746859945518E-1
 1.180000000000000E+10  -6.014689799951487E-1    2.345942590455828E-1
 1.181000000000000E+10  -5.681070570017742E-1    3.090408022748535E-1
 1.182000000000000E+10  -5.259421200791836E-1    3.784977203350194E-1
 1.183000000000000E+10  -4.748285952731399E-1    4.422649345677718E-1
 1.184000000000000E+10  -4.155038925279372E-1    4.986772760926373E-1
 1.185000000000000E+10  -3.487735959757371E-1    5.474835122399846E-1
 1.186000000000000E+10  -2.759704805138299E-1    5.878072720312328E-1
 1.187000000000000E+10  -1.983572033167670E-1    6.192303876178358E-1
 1.188000000000000E+10  -1.175126687906890E-1    6.415606465975930E-1
 1.189000000000000E+10  -3.497693795974515E-2    6.544234834243207E-1
 1.190000000000000E+10   4.762552366784428E-2    6.576704091204884E-1
 1.191000000000000E+10   1.293146415885676E-1    6.512934915855880E-1
 1.192000000000000E+10   2.087364874074422E-1    6.350025405568092E-1
 1.193000000000000E+10   2.850112785080171E-1    6.088606518302635E-1
 1.194000000000000E+10   3.571292741071788E-1    5.731916543446506E-1
 1.195000000000000E+10   4.244659841038418E-1    5.290283042255365E-1
 1.196000000000000E+10   4.863112338999659E-1    4.768844412742177E-1
 1.197000000000000E+10   5.419924659584962E-1    4.182766662252331E-1
 1.198000000000000E+10   5.908069051538787E-1    3.545523404289696E-1
 1.199000000000000E+10   6.324730955194391E-1    2.870383551739533E-1
 1.200000000000000E+10   6.662861263352111E-1    2.170163923133012E-1
 1.201000000000000E+10   6.919018775854712E-1    1.454498583559820E-1
 1.202000000000000E+10   7.092214059798124E-1    7.301593994081070E-2
 1.203000000000000E+10   7.178911740036417E-1    1.603471048672722E-4
 1.204000000000000E+10   7.180957400767484E-1   -7.265250530694189E-2
 1.205000000000000E+10   7.101797484997495E-1   -1.452564038047101E-1
 1.206000000000000E+10   6.941948375908819E-1   -2.171225454730412E-1
 1.207000000000000E+10   6.710020001729395E-1   -2.874249375859745E-1
 1.208000000000000E+10   6.412264486929030E-1   -3.556012126352026E-1
 1.209000000000000E+10   6.056110053658952E-1   -4.203567754223265E-1
 1.210000000000000E+10   5.649662709518455E-1   -4.809290791107036E-1
 1.211000000000000E+10   5.196467225477089E-1   -5.366467621141131E-1
 1.212000000000000E+10   4.699012212845190E-1   -5.866695911442653E-1
 1.213000000000000E+10   4.160279752543234E-1   -6.306327756846191E-1
 1.214000000000000E+10   3.578151648223801E-1   -6.684564461095527E-1
 1.215000000000000E+10   2.959649925051513E-1   -6.999671435625249E-1
 1.216000000000000E+10   2.303009920780610E-1   -7.254262936665571E-1
 1.217000000000000E+10   1.616819705770458E-1   -7.448453218915146E-1
 1.218000000000000E+10   9.084437040699554E-2   -7.582126145622684E-1
 1.219000000000000E+10   1.885650240059094E-2   -7.657889208870965E-1
 1.220000000000000E+10  -5.327604913818307E-2   -7.673022172118019E-1
 1.221000000000000E+10  -1.246315740600853E-1   -7.624228933962586E-1
 1.222000000000000E+10  -1.946399983683262E-1   -7.512142444880253E-1
 1.223000000000000E+10  -2.623620052553885E-1   -7.330728110400674E-1
 1.224000000000000E+10  -3.276160376898777E-1   -7.079222943811764E-1
 1.225000000000000E+10  -3.906619472941825E-1   -6.754884958487619E-1
 1.226000000000000E+10  -4.509141914562704E-1   -6.359465555883914E-1
 1.227000000000000E+10  -5.082849624151248E-1   -5.892989823322183E-1
 1.228000000000000E+10  -5.623442184078986E-1   -5.364462226248584E-1
 1.229000000000000E+10  -6.124135431959336E-1   -4.780137881065669E-1
 1.230000000000000E+10  -6.576152091147925E-1   -4.150363117737638E-1
 1.231000000000000E+10  -6.971842481819321E-1   -3.480593843913661E-1
 1.232000000000000E+10  -7.302178762118704E-1   -2.780582259966577E-1
 1.233000000000000E+10  -7.555667373119076E-1   -2.055452416859733E-1
 1.234000000000000E+10  -7.728933635791365E-1   -1.307645889286989E-1
 1.235000000000000E+10  -7.815832723299559E-1   -5.356929154300246E-2
 1.236000000000000E+10  -7.812546515429636E-1    2.542382300007586E-2
 1.237000000000000E+10  -7.718285052520967E-1    1.061123837716425E-1
 1.238000000000000E+10  -7.532933191280639E-1    1.875505716790777E-1
 1.239000000000000E+10  -7.256341664234721E-1    2.691079593885388E-1
 1.240000000000000E+10  -6.893262660088906E-1    3.487281214084819E-1
 1.241000000000000E+10  -6.447096915812888E-1    4.249067021297098E-1
 1.242000000000000E+10  -5.919540392012209E-1    4.960040750043371E-1
 1.243000000000000E+10  -5.311888607796798E-1    5.604800262414715E-1
 1.244000000000000E+10  -4.631970811835822E-1    6.171838556574966E-1
 1.245000000000000E+10  -3.879651205057115E-1    6.649598170482461E-1
 1.246000000000000E+10  -3.057739244514827E-1    7.031746564998175E-1
 1.247000000000000E+10  -2.180175485372556E-1    7.312899649845251E-1
 1.248000000000000E+10  -1.252952659400440E-1    7.489132560605853E-1
 1.249000000000000E+10  -2.908948762487581E-2    7.556086915237663E-1
 1.250000000000000E+10   6.814542989793065E-2    7.509188318927524E-1
