#  HZ   S   RI   R     50.00 
! Rohde & Schwarz Vector Network Analyzer 
! Rohde-Schwarz,ZNA43-4Port,1332450044101932,2.92
! Created: UTC 6/1/2026, 11:34:45 AM
! freq[Hz]                re:S11                  im:S11
 8.000000000000000E9     1.248467708174201E-1    9.695791580129863E-1
 8.010000000000000E9     2.026520639566308E-1    9.577844070024860E-1
 8.020000000000000E9     2.786829396784825E-1    9.395261944989353E-1
 8.030000000000000E9     3.531658597855732E-1    9.145780478082893E-1
 8.040000000000000E9     4.262227005893912E-1    8.824860207447929E-1
 8.050000000000000E9     4.975305420206225E-1    8.434630114247970E-1
 8.060000000000000E9     5.662561667850318E-1    7.975277542680227E-1
 8.070000000000000E9     6.323620778542060E-1    7.452271851942133E-1
 8.080000000000000E9     6.950276086439344E-1    6.869218883187301E-1
 8.090000000000000E9     7.532686226033908E-1    6.230037427761675E-1
 8.100000000000000E9     8.066411885847966E-1    5.531419842424087E-1
 8.110000000000000E9     8.543209463297275E-1    4.776263132632594E-1
 8.120000000000000E9     8.953548524804469E-1    3.965074955787810E-1
 8.130000000000000E9     9.286371124517813E-1    3.090592179558169E-1
 8.140000000000000E9     9.534994403888725E-1    2.155825967238583E-1
 8.150000000000000E9     9.688280844233319E-1    1.158246980393471E-1
 8.160000000000000E9     9.738434660786756E-1    1.103728692728180E-2
 8.170000000000000E9     9.673029328281161E-1   -9.819648367089666E-2
 8.180000000000000E9     9.483606053029293E-1   -2.101658008301910E-1
 8.190000000000000E9     9.158640690825373E-1   -3.232954788918928E-1
 8.200000000000000E9     8.685911759755611E-1   -4.351329228990347E-1
 8.210000000000000E9     8.052198514570597E-1   -5.442355329819182E-1
 8.220000000000000E9     7.244543312171412E-1   -6.473428178801941E-1
 8.230000000000000E9     6.257014668286381E-1   -7.417001029773866E-1
 8.240000000000000E9     5.085218851522226E-1   -8.236823621072381E-1
 8.250000000000000E9     3.739988190404814E-1   -8.898844610677150E-1
 8.260000000000000E9     2.241068827001515E-1   -9.360304228287736E-1
 8.270000000000000E9     6.272769339899892E-2   -9.583374408139713E-1
 8.280000000000000E9    -1.049619280493333E-1   -9.536562634429668E-1
 8.290000000000000E9    -2.728178656901322E-1   -9.197637889510939E-1
 8.300000000000000E9    -4.341485272280522E-1   -8.563468733996954E-1
 8.310000000000000E9    -5.829950384507460E-1   -7.638343827446983E-1
 8.320000000000000E9    -7.129776936045455E-1   -6.443421898401019E-1
 8.330000000000000E9    -8.186771586620470E-1   -5.016866672078506E-1
 8.340000000000000E9    -8.959545322283834E-1   -3.409398236333825E-1
 8.350000000000000E9    -9.421900874822897E-1   -1.688057326526418E-1
 8.360000000000000E9    -9.565963447191114E-1    6.964174793679323E-3
 8.370000000000000E9    -9.404923759114285E-1    1.792871938170797E-1
 8.380000000000000E9    -8.963837334743606E-1    3.416596019638716E-1
 8.390000000000000E9    -8.281400242557537E-1    4.891346522147572E-1
 8.400000000000000E9    -7.400700929518889E-1    6.182016029046193E-1
 8.410000000000000E9    -6.359539056253395E-1    7.269092840468026E-1
 8.420000000000000E9    -5.196144679099252E-1    8.145456453948529E-1
 8.430000000000000E9    -3.945580839201382E-1    8.815886636187305E-1
 8.440000000000000E9    -2.641475144290142E-1    9.282478472922265E-1
 8.450000000000000E9    -1.314439786220813E-1    9.557345930668403E-1
 8.460000000000000E9     4.683317890687438E-4    9.650409504145872E-1
 8.470000000000000E9     1.285722826350612E-1    9.579445291063385E-1
 8.480000000000000E9     2.505795156337103E-1    9.357554806548146E-1
 8.490000000000000E9     3.646969870822397E-1    8.999952666452892E-1
 8.500000000000000E9     4.696263230590091E-1    8.523864324696730E-1
 8.510000000000000E9     5.657491481965448E-1    7.931836397626573E-1
 8.520000000000000E9     6.525326579601805E-1    7.237664848709007E-1
 8.530000000000000E9     7.295081021612532E-1    6.447873408803385E-1
 8.540000000000000E9     7.966291894642767E-1    5.573605475614083E-1
 8.550000000000000E9     8.536583845333227E-1    4.629045331186891E-1
 8.560000000000000E9     9.002844114542154E-1    3.625177312803682E-1
 8.570000000000000E9     9.358372350807541E-1    2.581738109476205E-1
 8.580000000000000E9     9.600882217076893E-1    1.513690323830030E-1
 8.590000000000000E9     9.724957494217388E-1    4.387177334208146E-2
 8.600000000000000E9     9.727471800112648E-1   -6.341473472802561E-2
 8.610000000000000E9     9.607227793472367E-1   -1.692772113934370E-1
 8.620000000000000E9     9.361623323263413E-1   -2.732260109674347E-1
 8.630000000000000E9     8.991191529170159E-1   -3.744978714152258E-1
 8.640000000000000E9     8.499860714722198E-1   -4.720476343366663E-1
 8.650000000000000E9     7.892475077060588E-1   -5.646579214438191E-1
 8.660000000000000E9     7.177464710406960E-1   -6.514637469760792E-1
 8.670000000000000E9     6.364580859610544E-1   -7.306350369282717E-1
 8.680000000000000E9     5.467397835653556E-1   -8.005627841946558E-1
 8.690000000000000E9     4.497436004015614E-1   -8.598008049859551E-1
 8.700000000000000E9     3.465959573049719E-1   -9.073473292119839E-1
 8.710000000000000E9     2.385101316275834E-1   -9.416804664268429E-1
 8.720000000000000E9     1.264131176772642E-1   -9.627907961141347E-1
 8.730000000000000E9     1.134039040023456E-2   -9.697514801447409E-1
 8.740000000000000E9    -1.050951320239713E-1   -9.622902841370844E-1
 8.750000000000000E9    -2.214086746666426E-1   -9.406162675960167E-1
 8.760000000000000E9    -3.351368997952638E-1   -9.052971925393614E-1
 8.770000000000000E9    -4.443366492138499E-1   -8.568354833278969E-1
 8.780000000000000E9    -5.465816135823890E-1   -7.964741499949194E-1
 8.790000000000000E9    -6.400672704671618E-1   -7.253281498420110E-1
 8.800000000000000E9    -7.233268771783001E-1   -6.443638688411106E-1
 8.810000000000000E9    -7.950508181057246E-1   -5.548837920808501E-1
 8.820000000000000E9    -8.544841703520912E-1   -4.578069882747511E-1
 8.830000000000000E9    -9.011556582989079E-1   -3.543764485140521E-1
 8.840000000000000E9    -9.351799084454941E-1   -2.460064848459692E-1
 8.850000000000000E9    -9.564402125170862E-1   -1.343842571571777E-1
 8.860000000000000E9    -9.651139052349788E-1   -2.108117278554866E-2
 8.870000000000000E9    -9.613134772716799E-1    9.164106579098839E-2
 8.880000000000000E9    -9.454279300191758E-1    2.017390433476884E-1
 8.890000000000000E9    -9.182358748353709E-1    3.074788673854203E-1
 8.900000000000000E9    -8.802007033699141E-1    4.073889387291879E-1
 8.910000000000000E9    -8.320726023388405E-1    5.003138906736191E-1
 8.920000000000000E9    -7.745321887307743E-1    5.860321318994957E-1
 8.930000000000000E9    -7.081820034738646E-1    6.640689112801418E-1
 8.940000000000000E9    -6.338668123185081E-1    7.342233940818188E-1
 8.950000000000000E9    -5.525739583142318E-1    7.961252331307199E-1
 8.960000000000000E9    -4.655638922716830E-1    8.495207628977574E-1
 8.970000000000000E9    -3.739486030925674E-1    8.939351682406074E-1
 8.980000000000000E9    -2.792111040778412E-1    9.289269323577682E-1
 8.990000000000000E9    -1.826678866322500E-1    9.540947668222032E-1
 9.000000000000000E9    -8.529407397725379E-2    9.692284108969546E-1
 9.010000000000000E9     1.174839202306897E-2    9.740682473175906E-1
 9.020000000000000E9     1.079193917810924E-1    9.684062768268443E-1
 9.030000000000000E9     2.032193263694184E-1    9.525593831401207E-1
 9.040000000000000E9     2.973230437179149E-1    9.265549468172547E-1
 9.050000000000000E9     3.893735378637374E-1    8.905780954900052E-1
 9.060000000000000E9     4.787304784011653E-1    8.446456001471465E-1
 9.070000000000000E9     5.646052121408118E-1    7.895677066525235E-1
 9.080000000000000E9     6.456678293817091E-1    7.252725422238234E-1
 9.090000000000000E9     7.204232517367067E-1    6.524343158270062E-1
 9.100000000000000E9     7.872217066040881E-1    5.716035941135269E-1
 9.110000000000000E9     8.450198313982239E-1    4.834015326398307E-1
 9.120000000000000E9     8.926715621006726E-1    3.879582951385554E-1
 9.130000000000000E9     9.291652840606165E-1    2.861015907539267E-1
 9.140000000000000E9     9.540556222014415E-1    1.781320493310786E-1
 9.150000000000000E9     9.663182488793539E-1    6.494363788046299E-2
 9.160000000000000E9     9.648486790868013E-1   -5.311150132265618E-2
 9.170000000000000E9     9.486277499861031E-1   -1.740334333395847E-1
 9.180000000000000E9     9.167586464508002E-1   -2.959459135229716E-1
 9.190000000000000E9     8.681975061920891E-1   -4.159914036040627E-1
 9.200000000000000E9     8.019900918136573E-1   -5.308734222732850E-1
 9.210000000000000E9     7.191109550115123E-1   -6.372679861636825E-1
 9.220000000000000E9     6.199624679351101E-1   -7.320478926372485E-1
 9.230000000000000E9     5.052801223623341E-1   -8.124729115957758E-1
 9.240000000000000E9     3.776294369671860E-1   -8.758632358273960E-1
 9.250000000000000E9     2.388427505181520E-1   -9.203045584622493E-1
 9.260000000000000E9     9.199526270806672E-2   -9.435596712678329E-1
 9.270000000000000E9    -5.915791889596644E-2   -9.439961881318814E-1
 9.280000000000000E9    -2.103514410290404E-1   -9.206284484785561E-1
 9.290000000000000E9    -3.566753979126543E-1   -8.735081077270033E-1
 9.300000000000000E9    -4.929402166725647E-1   -8.035420735331008E-1
 9.310000000000000E9    -6.149924537106671E-1   -7.135560954977677E-1
 9.320000000000000E9    -7.191408116674376E-1   -6.064263691663647E-1
 9.330000000000000E9    -8.036601536811385E-1   -4.865260352883184E-1
 9.340000000000000E9    -8.671613755171107E-1   -3.576716580808596E-1
 9.350000000000000E9    -9.100864172816443E-1   -2.239377501730648E-1
 9.360000000000000E9    -9.330296800303004E-1   -8.857795460251390E-2
 9.370000000000000E9    -9.367441362449713E-1    4.559440484616352E-2
 9.380000000000000E9    -9.226182432491922E-1    1.753064202188494E-1
 9.390000000000000E9    -8.920806040794976E-1    2.981975805892426E-1
 9.400000000000000E9    -8.470963313395108E-1    4.116484393420671E-1
 9.410000000000000E9    -7.901917182620278E-1    5.146387628205741E-1
 9.420000000000000E9    -7.234930667490118E-1    6.058596764023859E-1
 9.430000000000000E9    -6.496110494410500E-1    6.852682924551998E-1
 9.440000000000000E9    -5.705693896441028E-1    7.531873860850437E-1
 9.450000000000000E9    -4.878543220229196E-1    8.103117850074009E-1
 9.460000000000000E9    -4.027037349839391E-1    8.574669584486062E-1
 9.470000000000000E9    -3.161694355828042E-1    8.946476782905396E-1
 9.480000000000000E9    -2.288212130195649E-1    9.224551537536192E-1
 9.490000000000000E9    -1.415957586408892E-1    9.413944338040739E-1
 9.500000000000000E9    -5.491410730061125E-2    9.511872178941172E-1
 9.510000000000000E9     2.988791406879373E-2    9.532265610680761E-1
 9.520000000000000E9     1.124582331875387E-1    9.475961408016157E-1
 9.530000000000000E9     1.920116010445448E-1    9.349127933998673E-1
 9.540000000000000E9     2.683507030622682E-1    9.162682557323727E-1
 9.550000000000000E9     3.411798591471030E-1    8.922953989660810E-1
 9.560000000000000E9     4.103915522323343E-1    8.637571726268609E-1
 9.570000000000000E9     4.760440043717401E-1    8.308064264544837E-1
 9.580000000000000E9     5.381823284229000E-1    7.936720631532402E-1
 9.590000000000000E9     5.965281959753228E-1    7.523526523423874E-1
 9.600000000000000E9     6.511059897802384E-1    7.069747967700249E-1
 9.610000000000000E9     7.016715917701080E-1    6.576642407258418E-1
 9.620000000000000E9     7.480532445862749E-1    6.044747243291653E-1
 9.630000000000000E9     7.899675677078897E-1    5.481242130147602E-1
 9.640000000000000E9     8.274447553677929E-1    4.891348065789052E-1
 9.650000000000000E9     8.605068815619934E-1    4.280197200293495E-1
 9.660000000000000E9     8.894134598721840E-1    3.649535656857351E-1
 9.670000000000000E9     9.139945592634792E-1    3.003925214132666E-1
 9.680000000000000E9     9.340694169273086E-1    2.341520403884396E-1
 9.690000000000000E9     9.493762247486213E-1    1.664588077780194E-1
 9.700000000000000E9     9.595227669477960E-1    9.697434107969354E-2
 9.710000000000000E9     9.645341467394357E-1    2.598369369714186E-2
 9.720000000000000E9     9.635891168151092E-1   -4.636945325669559E-2
 9.730000000000000E9     9.566973566951845E-1   -1.197131543215771E-1
 9.740000000000000E9     9.439660703047358E-1   -1.936670332739824E-1
 9.750000000000000E9     9.252294437277998E-1   -2.677716393825452E-1
 9.760000000000000E9     9.003756294734200E-1   -3.414130990806447E-1
 9.770000000000000E9     8.695798103437684E-1   -4.140099704153892E-1
 9.780000000000000E9     8.324890730227933E-1   -4.856319681881305E-1
 9.790000000000000E9     7.885841739126744E-1   -5.553767646146597E-1
 9.800000000000000E9     7.372090696393159E-1   -6.228308016699609E-1
 9.810000000000000E9     6.777085247069964E-1   -6.874897727076503E-1
 9.820000000000000E9     6.092523208553872E-1   -7.483558651950590E-1
 9.830000000000000E9     5.319343295863862E-1   -8.043667089893710E-1
 9.840000000000000E9     4.455030137735176E-1   -8.541212517330052E-1
 9.850000000000000E9     3.505710345801677E-1   -8.961753751266428E-1
 9.860000000000000E9     2.479266775184042E-1   -9.293962437488634E-1
 9.870000000000000E9     1.386401306990202E-1   -9.521369565973977E-1
 9.880000000000000E9     2.365305564402133E-2   -9.625021633133212E-1
 9.890000000000000E9    -9.604413532142872E-2   -9.588106193577142E-1
 9.900000000000000E9    -2.189771046277613E-1   -9.389313468227783E-1
 9.910000000000000E9    -3.431218793483188E-1   -9.008612688679969E-1
 9.920000000000000E9    -4.658771507683969E-1   -8.426567055126530E-1
 9.930000000000000E9    -5.837443755687820E-1   -7.633335265239931E-1
 9.940000000000000E9    -6.920012285748824E-1   -6.632196247863452E-1
 9.950000000000000E9    -7.867098329963599E-1   -5.436288290641177E-1
 9.960000000000000E9    -8.631271867001420E-1   -4.073433042101042E-1
 9.970000000000000E9    -9.174551656798257E-1   -2.587852609113412E-1
 9.980000000000000E9    -9.469925270289823E-1   -1.024573375719758E-1
 9.990000000000000E9    -9.501686583991762E-1    5.657308058706701E-2
 1.000000000000000E+10  -9.266006268326901E-1    2.130941174355793E-1
 1.001000000000000E+10  -8.763479591589418E-1    3.634393849982171E-1
 1.002000000000000E+10  -8.019835076130811E-1    5.014405742819235E-1
 1.003000000000000E+10  -7.069768308192224E-1    6.236034043684151E-1
 1.004000000000000E+10  -5.959200035659693E-1    7.269121309280987E-1
 1.005000000000000E+10  -4.738837308479259E-1    8.093058521890670E-1
 1.006000000000000E+10  -3.466066071334315E-1    8.706215088760731E-1
 1.007000000000000E+10  -2.174917747018522E-1    9.115312680771396E-1
 1.008000000000000E+10  -9.071784968409312E-2    9.332819487641338E-1
 1.009000000000000E+10   3.184051958342119E-2    9.376906545261293E-1
 1.010000000000000E+10   1.487892962148805E-1    9.262560864242150E-1
 1.011000000000000E+10   2.595163279963871E-1    9.010226900598246E-1
 1.012000000000000E+10   3.631521629252369E-1    8.630629390710228E-1
 1.013000000000000E+10   4.591329319516859E-1    8.146347800500305E-1
 1.014000000000000E+10   5.465517397566996E-1    7.580688074525623E-1
 1.015000000000000E+10   6.252199568606249E-1    6.951797096273609E-1
 1.016000000000000E+10   6.947372130883530E-1    6.275963043301876E-1
 1.017000000000000E+10   7.548896708216394E-1    5.575063137654426E-1
 1.018000000000000E+10   8.060037926958665E-1    4.855884374727869E-1
 1.019000000000000E+10   8.481554409098219E-1    4.124510964000468E-1
 1.020000000000000E+10   8.816937900598493E-1    3.386789692726978E-1
 1.021000000000000E+10   9.074744096650715E-1    2.637110026187619E-1
 1.022000000000000E+10   9.258998819961463E-1    1.874371869478198E-1
 1.023000000000000E+10   9.374846460696756E-1    1.098593378381163E-1
 1.024000000000000E+10   9.423239733379392E-1    3.150792996130514E-2
 1.025000000000000E+10   9.414194320750662E-1   -4.693134910755056E-2
 1.026000000000000E+10   9.347662695872540E-1   -1.243164509681852E-1
 1.027000000000000E+10   9.230164142085681E-1   -1.996391418820612E-1
 1.028000000000000E+10   9.064126504196327E-1   -2.717943651940054E-1
 1.029000000000000E+10   8.853900741707968E-1   -3.402562015687043E-1
 1.030000000000000E+10   8.596740062354825E-1   -4.050261776822582E-1
 1.031000000000000E+10   8.290003752713517E-1   -4.663154073184745E-1
 1.032000000000000E+10   7.933703407382245E-1   -5.246002699359865E-1
 1.033000000000000E+10   7.523131869768624E-1   -5.799771987774850E-1
 1.034000000000000E+10   7.062597702312684E-1   -6.328561247025203E-1
 1.035000000000000E+10   6.554340270330173E-1   -6.830629900622311E-1
 1.036000000000000E+10   6.000441259864719E-1   -7.306402272349055E-1
 1.037000000000000E+10   5.410292784207968E-1   -7.748314815040066E-1
 1.038000000000000E+10   4.791586281574722E-1   -8.152144160236325E-1
 1.039000000000000E+10   4.151650800790628E-1   -8.507930415820958E-1
 1.040000000000000E+10   3.491803892264808E-1   -8.810941447218053E-1
 1.041000000000000E+10   2.814656204458697E-1   -9.059395652948665E-1
 1.042000000000000E+10   2.118290627973174E-1   -9.245854677783920E-1
 1.043000000000000E+10   1.398229280460007E-1   -9.371844763582355E-1
 1.044000000000000E+10   6.501361025322214E-2   -9.434494261476631E-1
 1.045000000000000E+10  -1.242919835832068E-2   -9.433021996736559E-1
 1.046000000000000E+10  -9.222435532669984E-2   -9.366654576761830E-1
 1.047000000000000E+10  -1.735379269590524E-1   -9.234576672308024E-1
 1.048000000000000E+10  -2.552205706562453E-1   -9.034041016557530E-1
 1.049000000000000E+10  -3.360531628691981E-1   -8.766908869620732E-1
 1.050000000000000E+10  -4.145452919215118E-1   -8.429224358548507E-1
 1.051000000000000E+10  -4.901614251353924E-1   -8.020158093523335E-1
 1.052000000000000E+10  -5.619305407329996E-1   -7.535084164840864E-1
 1.053000000000000E+10  -6.295415795586163E-1   -6.968628592374954E-1
 1.054000000000000E+10  -6.925007070836791E-1   -6.316055565201757E-1
 1.055000000000000E+10  -7.504909537471650E-1   -5.575542803254943E-1
 1.056000000000000E+10  -8.024539039927469E-1   -4.747191331719701E-1
 1.057000000000000E+10  -8.477846871607226E-1   -3.842266107418506E-1
 1.058000000000000E+10  -8.849698340488483E-1   -2.868586911287141E-1
 1.059000000000000E+10  -9.121653867427852E-1   -1.841872345115836E-1
 1.060000000000000E+10  -9.286256276918797E-1   -7.797149467712162E-2
 1.061000000000000E+10  -9.328572311671282E-1    3.030596178611635E-2
 1.062000000000000E+10  -9.240456176349762E-1    1.389354208535684E-1
 1.063000000000000E+10  -9.013359614252913E-1    2.471295804602305E-1
 1.064000000000000E+10  -8.641924886129578E-1    3.532091895909358E-1
 1.065000000000000E+10  -8.127838858505763E-1    4.565934747383137E-1
 1.066000000000000E+10  -7.471533175375255E-1    5.555398916404757E-1
 1.067000000000000E+10  -6.677608550982131E-1    6.481320823630941E-1
 1.068000000000000E+10  -5.759964730461217E-1    7.320702923936758E-1
 1.069000000000000E+10  -4.737668527481028E-1    8.046390575474596E-1
 1.070000000000000E+10  -3.634102827061287E-1    8.638188305974335E-1
 1.071000000000000E+10  -2.476890391076276E-1    9.077637243180147E-1
 1.072000000000000E+10  -1.286921396364165E-1    9.353862783927599E-1
 1.073000000000000E+10  -8.226405946016025E-3    9.465861955456164E-1
 1.074000000000000E+10   1.118568873132615E-1    9.411970760616790E-1
 1.075000000000000E+10   2.305861087684276E-1    9.199400033012475E-1
 1.076000000000000E+10   3.459556823904423E-1    8.834223707315151E-1
 1.077000000000000E+10   4.568939671442404E-1    8.326360413919702E-1
 1.078000000000000E+10   5.607528149090363E-1    7.688126255576578E-1
 1.079000000000000E+10   6.555338245495909E-1    6.936597869606695E-1
 1.080000000000000E+10   7.392093521746858E-1    6.094309093887516E-1
 1.081000000000000E+10   8.104157446549149E-1    5.181474633018101E-1
 1.082000000000000E+10   8.681292160371213E-1    4.214912134843306E-1
 1.083000000000000E+10   9.126328891932450E-1    3.212654467009683E-1
 1.084000000000000E+10   9.438344874824367E-1    2.181541346148847E-1
 1.085000000000000E+10   9.624797304799151E-1    1.134717810517204E-1
 1.086000000000000E+10   9.693161536183862E-1    7.726395092490564E-3
 1.087000000000000E+10   9.648130347064526E-1   -9.811098609950276E-2
 1.088000000000000E+10   9.493331367149486E-1   -2.021214433751274E-1
 1.089000000000000E+10   9.239116655174670E-1   -3.033752033394453E-1
 1.090000000000000E+10   8.885659243398739E-1   -3.999536415371275E-1
 1.091000000000000E+10   8.442771635062036E-1   -4.907390096512911E-1
 1.092000000000000E+10   7.918847266780754E-1   -5.739118965758124E-1
 1.093000000000000E+10   7.326109336234718E-1   -6.491532954146887E-1
 1.094000000000000E+10   6.667055973543297E-1   -7.165890431628328E-1
 1.095000000000000E+10   5.951857462759327E-1   -7.764153572805462E-1
 1.096000000000000E+10   5.177176531876730E-1   -8.285508462216618E-1
 1.097000000000000E+10   4.354201729333923E-1   -8.740204502579276E-1
 1.098000000000000E+10   3.485847109156596E-1   -9.115652619417858E-1
 1.099000000000000E+10   2.584111921897095E-1   -9.412444904004187E-1
 1.100000000000000E+10   1.660356084146295E-1   -9.625611694694728E-1
 1.101000000000000E+10   7.296198194106863E-2   -9.749550917581772E-1
 1.102000000000000E+10  -1.951290583523252E-2   -9.777719886859522E-1
 1.103000000000000E+10  -1.106464913738013E-1   -9.715085759883583E-1
 1.104000000000000E+10  -1.995178118141112E-1   -9.559233157903954E-1
 1.105000000000000E+10  -2.856860699655272E-1   -9.318063078100112E-1
 1.106000000000000E+10  -3.694458599726665E-1   -8.996312896758061E-1
 1.107000000000000E+10  -4.505643719233659E-1   -8.594539043122329E-1
 1.108000000000000E+10  -5.285656143289583E-1   -8.115703890357645E-1
 1.109000000000000E+10  -6.030436885796098E-1   -7.561177615392817E-1
 1.110000000000000E+10  -6.730783674794752E-1   -6.936980439700898E-1
 1.111000000000000E+10  -7.373257846501832E-1   -6.245048400536016E-1
 1.112000000000000E+10  -7.942553456960429E-1   -5.492551104080386E-1
 1.113000000000000E+10  -8.430577694655370E-1   -4.688738695692536E-1
 1.114000000000000E+10  -8.829929636163365E-1   -3.840851725240017E-1
 1.115000000000000E+10  -9.138439131059534E-1   -2.959592686882674E-1
 1.116000000000000E+10  -9.356800672795568E-1   -2.050878423136921E-1
 1.117000000000000E+10  -9.483613063581555E-1   -1.120162472581627E-1
 1.118000000000000E+10  -9.524109153855376E-1   -1.725634902972895E-2
 1.119000000000000E+10  -9.475555910973474E-1    7.825047622180664E-2
 1.120000000000000E+10  -9.333543334552015E-1    1.736221551541805E-1
 1.121000000000000E+10  -9.097709778543991E-1    2.676207446318745E-1
 1.122000000000000E+10  -8.767484940397161E-1    3.588356016233831E-1
 1.123000000000000E+10  -8.343166753877841E-1    4.460390513035051E-1
 1.124000000000000E+10  -7.830664001848621E-1    5.275651462039983E-1
 1.125000000000000E+10  -7.236663175900304E-1    6.032521915373097E-1
 1.126000000000000E+10  -6.570112366599997E-1    6.716459258861026E-1
 1.127000000000000E+10  -5.837667679126577E-1    7.329952967475233E-1
 1.128000000000000E+10  -5.044970183494485E-1    7.868909794208817E-1
 1.129000000000000E+10  -4.201414536349037E-1    8.332362499975826E-1
 1.130000000000000E+10  -3.314085164456491E-1    8.710123578815770E-1
 1.131000000000000E+10  -2.396692721176162E-1    9.000987717623086E-1
 1.132000000000000E+10  -1.454888771036492E-1    9.195193141402317E-1
 1.133000000000000E+10  -5.005568650436203E-2    9.291423235645506E-1
 1.134000000000000E+10   4.503032525381331E-2    9.287453521087243E-1
 1.135000000000000E+10   1.386625515447220E-1    9.185691856141007E-1
 1.136000000000000E+10   2.301870867740892E-1    8.986834789739699E-1
 1.137000000000000E+10   3.185189828157043E-1    8.703499179305255E-1
 1.138000000000000E+10   4.032094025041568E-1    8.341640987878822E-1
 1.139000000000000E+10   4.839656341008979E-1    7.901370057058669E-1
 1.140000000000000E+10   5.601092664020237E-1    7.389346957807400E-1
 1.141000000000000E+10   6.311125871273372E-1    6.811384151107626E-1
 1.142000000000000E+10   6.958959773130607E-1    6.166999615682965E-1
 1.143000000000000E+10   7.537334350363003E-1    5.462900083573370E-1
 1.144000000000000E+10   8.037954521245433E-1    4.707168744521246E-1
 1.145000000000000E+10   8.457745227327751E-1    3.907491972998177E-1
 1.146000000000000E+10   8.795889863842756E-1    3.077141306126964E-1
 1.147000000000000E+10   9.052289050483037E-1    2.221611572470299E-1
 1.148000000000000E+10   9.230694441916270E-1    1.348828616811293E-1
 1.149000000000000E+10   9.326962672299673E-1    4.657805709635267E-2
 1.150000000000000E+10   9.347847141257953E-1   -4.218144622341848E-2
 1.151000000000000E+10   9.287852367858523E-1   -1.308009392540287E-1
 1.152000000000000E+10   9.145046742154401E-1   -2.182308889267862E-1
 1.153000000000000E+10   8.918569069114084E-1   -3.039690060498925E-1
 1.154000000000000E+10   8.608390226492348E-1   -3.872543032601842E-1
 1.155000000000000E+10   8.216509837925627E-1   -4.669141097962774E-1
 1.156000000000000E+10   7.745920428971460E-1   -5.424621561606628E-1
 1.157000000000000E+10   7.206498360755538E-1   -6.130458114998655E-1
 1.158000000000000E+10   6.604657099990432E-1   -6.782589387882707E-1
 1.159000000000000E+10   5.946371789792915E-1   -7.374549867684781E-1
 1.160000000000000E+10   5.237419036937270E-1   -7.910515252954259E-1
 1.161000000000000E+10   4.482279816317293E-1   -8.379470902467304E-1
 1.162000000000000E+10   3.680272408284065E-1   -8.780002692918961E-1
 1.163000000000000E+10   2.836981960150382E-1   -9.102837140936018E-1
 1.164000000000000E+10   1.956982705767374E-1   -9.340589284017822E-1
 1.165000000000000E+10   1.047104251552943E-1   -9.492876243078787E-1
 1.166000000000000E+10   1.192921259498105E-2   -9.549166400922078E-1
 1.167000000000000E+10  -8.174988710764439E-2   -9.513287696310904E-1
 1.168000000000000E+10  -1.748961645503705E-1   -9.387431847985745E-1
 1.169000000000000E+10  -2.671537972601644E-1   -9.172131904720541E-1
 1.170000000000000E+10  -3.572483599419246E-1   -8.871541017881875E-1
 1.171000000000000E+10  -4.441835422936894E-1   -8.481483550521826E-1
 1.172000000000000E+10  -5.270100916174468E-1   -8.006400203371342E-1
 1.173000000000000E+10  -6.052454698097739E-1   -7.443049369108552E-1
 1.174000000000000E+10  -6.780030266612495E-1   -6.790810950248981E-1
 1.175000000000000E+10  -7.439595841834715E-1   -6.054118920794955E-1
 1.176000000000000E+10  -8.029014910500444E-1   -5.235646102338575E-1
 1.177000000000000E+10  -8.534198990243671E-1   -4.343147343230600E-1
 1.178000000000000E+10  -8.948430087197198E-1   -3.389182149037101E-1
 1.179000000000000E+10  -9.262000421575871E-1   -2.388552458294876E-1
 1.180000000000000E+10  -9.470359430743548E-1   -1.353558345423356E-1
 1.181000000000000E+10  -9.566747162674306E-1   -3.012744620855631E-2
 1.182000000000000E+10  -9.550030792973498E-1    7.543104502043815E-2
 1.183000000000000E+10  -9.412134294464820E-1    1.812626805244754E-1
 1.184000000000000E+10  -9.144190123020645E-1    2.848364766218567E-1
 1.185000000000000E+10  -8.752363614669070E-1    3.852144023104780E-1
 1.186000000000000E+10  -8.237402649549673E-1    4.814133664028337E-1
 1.187000000000000E+10  -7.607853135771757E-1    5.716198779385098E-1
 1.188000000000000E+10  -6.876685208559602E-1    6.546797985792272E-1
 1.189000000000000E+10  -6.056200416424364E-1    7.292024378821981E-1
 1.190000000000000E+10  -5.165908692052013E-1    7.940444005104252E-1
 1.191000000000000E+10  -4.212273178823138E-1    8.487380927120514E-1
 1.192000000000000E+10  -3.209460720129922E-1    8.917079906236709E-1
 1.193000000000000E+10  -2.170184773267360E-1    9.221919864594449E-1
 1.194000000000000E+10  -1.106744138944676E-1    9.397120502450080E-1
 1.195000000000000E+10  -3.161309197253046E-3    9.441275966627025E-1
 1.196000000000000E+10   1.042967448794570E-1    9.355021598363361E-1
 1.197000000000000E+10   2.098929013272148E-1    9.142202352917490E-1
 1.198000000000000E+10   3.124979634717530E-1    8.816392141886188E-1
 1.199000000000000E+10   4.099725822746514E-1    8.385896331711657E-1
 1.200000000000000E+10   5.011013849446617E-1    7.864021626862185E-1
 1.201000000000000E+10   5.847052697802999E-1    7.265441219134207E-1
 1.202000000000000E+10   6.596060874931611E-1    6.598359837519069E-1
 1.203000000000000E+10   7.254822634590203E-1    5.871731891990682E-1
 1.204000000000000E+10   7.818466565965358E-1    5.093833175826273E-1
 1.205000000000000E+10   8.288712794771333E-1    4.268245314375769E-1
 1.206000000000000E+10   8.661661053244119E-1    3.401875085165234E-1
 1.207000000000000E+10   8.941979587711764E-1    2.502688817306979E-1
 1.208000000000000E+10   9.131367251444489E-1    1.580758749312907E-1
 1.209000000000000E+10   9.231152891998912E-1    6.519619217591190E-2
 1.210000000000000E+10   9.247234567140790E-1   -2.711040700099415E-2
 1.211000000000000E+10   9.181903995811955E-1   -1.174722462114267E-1
 1.212000000000000E+10   9.037829795492976E-1   -2.048676420848531E-1
 1.213000000000000E+10   8.818127090054906E-1   -2.885211592564972E-1
 1.214000000000000E+10   8.521136518981614E-1   -3.683290002243682E-1
 1.215000000000000E+10   8.153051523103639E-1   -4.435682154449859E-1
 1.216000000000000E+10   7.713485150619812E-1   -5.145739613144025E-1
 1.217000000000000E+10   7.209696009885654E-1   -5.810662441431392E-1
 1.218000000000000E+10   6.647184519863778E-1   -6.429718009302606E-1
 1.219000000000000E+10   6.037619033549311E-1   -7.000505981112840E-1
 1.220000000000000E+10   5.387611514969601E-1   -7.519262771684426E-1
 1.221000000000000E+10   4.705054180226192E-1   -7.979732895915470E-1
 1.222000000000000E+10   4.001439244027821E-1   -8.380344619574903E-1
 1.223000000000000E+10   3.281981025721719E-1   -8.711063993286963E-1
 1.224000000000000E+10   2.549586841039203E-1   -8.970090893750005E-1
 1.225000000000000E+10   1.803071071198666E-1   -9.158930616706522E-1
 1.226000000000000E+10   1.045503022303055E-1   -9.275921627004957E-1
 1.227000000000000E+10   2.684759146518968E-2   -9.320112595397794E-1
 1.228000000000000E+10  -5.179840192355870E-2   -9.295222336766434E-1
 1.229000000000000E+10  -1.312304659245928E-1   -9.205570180105096E-1
 1.230000000000000E+10  -2.105337654365347E-1   -9.054521223721546E-1
 1.231000000000000E+10  -2.890496686274840E-1   -8.845286699755166E-1
 1.232000000000000E+10  -3.652602930920921E-1   -8.582919832161942E-1
 1.233000000000000E+10  -4.382544251744213E-1   -8.264047781278920E-1
 1.234000000000000E+10  -5.072303440473355E-1   -7.896076783543309E-1
 1.235000000000000E+10  -5.721170133791735E-1   -7.471399811060115E-1
 1.236000000000000E+10  -6.320157935264417E-1   -6.991319565126812E-1
 1.237000000000000E+10  -6.878566257558003E-1   -6.453190214896852E-1
 1.238000000000000E+10  -7.387695019078793E-1   -5.853336238852282E-1
 1.239000000000000E+10  -7.856650357162496E-1   -5.196337416149643E-1
 1.240000000000000E+10  -8.278026711379348E-1   -4.485793683459245E-1
 1.241000000000000E+10  -8.649467485249773E-1   -3.729568059737433E-1
 1.242000000000000E+10  -8.964315482549431E-1   -2.935922993172310E-1
 1.243000000000000E+10  -9.215991804192494E-1   -2.114944673585148E-1
 1.244000000000000E+10  -9.397823014458180E-1   -1.281227127913633E-1
 1.245000000000000E+10  -9.501884548344137E-1   -4.369264404935776E-2
 1.246000000000000E+10  -9.523643586779429E-1    4.163021254176393E-2
 1.247000000000000E+10  -9.459291428407181E-1    1.269141912672092E-1
 1.248000000000000E+10  -9.307845645275272E-1    2.125755768404907E-1
 1.249000000000000E+10  -9.066544502129600E-1    2.985124288544657E-1
 1.250000000000000E+10  -8.734027365613337E-1    3.838250200527594E-1
