#  HZ   S   RI   R     50.00 
! Rohde & Schwarz Vector Network Analyzer 
! Rohde-Schwarz,ZNA43-4Port,1332450044101932,2.92
! Created: UTC 6/1/2026, 11:35:16 AM
! freq[Hz]                re:S11                  im:S11
 8.000000000000000E9    -9.392348058223065E-1   -1.576709951649662E-1
 8.010000000000000E9    -9.551814243828091E-1    2.290225430973827E-2
 8.020000000000000E9    -9.402070515940186E-1    1.899764246670475E-1
 8.030000000000000E9    -9.009365580628700E-1    3.398592634053674E-1
 8.040000000000000E9    -8.431452054286722E-1    4.717464334001718E-1
 8.050000000000000E9    -7.712816311689309E-1    5.856405150014169E-1
 8.060000000000000E9    -6.886099233949866E-1    6.819573149894967E-1
 8.070000000000000E9    -5.986185538751968E-1    7.623135731008390E-1
 8.080000000000000E9    -5.040099173915227E-1    8.278113471172157E-1
 8.090000000000000E9    -4.065232401643682E-1    8.795909933836606E-1
 8.100000000000000E9    -3.082110853528237E-1    9.193367098997720E-1
 8.110000000000000E9    -2.108416123409778E-1    9.480295359525904E-1
 8.120000000000000E9    -1.154405581174315E-1    9.662040021306001E-1
 8.130000000000000E9    -2.227483796157231E-2    9.746307184498972E-1
 8.140000000000000E9     6.807007802455489E-2    9.741568702403334E-1
 8.150000000000000E9     1.557636650895624E-1    9.650191547258683E-1
 8.160000000000000E9     2.402582282880965E-1    9.475474451051917E-1
 8.170000000000000E9     3.220968970992041E-1    9.222660651755125E-1
 8.180000000000000E9     4.008289310374046E-1    8.896987578769763E-1
 8.190000000000000E9     4.763766518361884E-1    8.508311121026689E-1
 8.200000000000000E9     5.480235993055943E-1    8.059253490793823E-1
 8.210000000000000E9     6.156721167473861E-1    7.561901237912327E-1
 8.220000000000000E9     6.785873990175246E-1    7.015362427739373E-1
 8.230000000000000E9     7.362554897259908E-1    6.426656598287538E-1
 8.240000000000000E9     7.882984323778970E-1    5.790446810108595E-1
 8.250000000000000E9     8.346815436736906E-1    5.113583577129690E-1
 8.260000000000000E9     8.747960457690318E-1    4.388770613580779E-1
 8.270000000000000E9     9.084032437762043E-1    3.617009427740855E-1
 8.280000000000000E9     9.353523497922226E-1    2.798200621991159E-1
 8.290000000000000E9     9.552339548992271E-1    1.933033267814595E-1
 8.300000000000000E9     9.672184007464741E-1    1.034492659318898E-1
 8.310000000000000E9     9.702010840701625E-1    1.088265964987772E-2
 8.320000000000000E9     9.598226507153318E-1   -8.108163749050150E-2
 8.330000000000000E9     9.469222962630701E-1   -1.572161755164028E-1
 8.340000000000000E9     9.385384708640145E-1   -2.471912867449538E-1
 8.350000000000000E9     9.130561743834611E-1   -3.396778877578635E-1
 8.360000000000000E9     8.753032486384206E-1   -4.293587110828588E-1
 8.370000000000000E9     8.261695831665079E-1   -5.158625761434523E-1
 8.380000000000000E9     7.661522840777397E-1   -5.987309781826485E-1
 8.390000000000000E9     6.953692480467131E-1   -6.769878772356325E-1
 8.400000000000000E9     6.140387593536086E-1   -7.493736372766100E-1
 8.410000000000000E9     5.231929158475607E-1   -8.144852032170425E-1
 8.420000000000000E9     4.240417087423733E-1   -8.702521236944742E-1
 8.430000000000000E9     3.176426654017613E-1   -9.151007385163110E-1
 8.440000000000000E9     2.054719060487117E-1   -9.474606279684987E-1
 8.450000000000000E9     8.897229661667048E-2   -9.659193462624731E-1
 8.460000000000000E9    -3.080587854414487E-2   -9.690342823261026E-1
 8.470000000000000E9    -1.526419488936995E-1   -9.559827949697549E-1
 8.480000000000000E9    -2.746896479266726E-1   -9.261220470263969E-1
 8.490000000000000E9    -3.949107637998769E-1   -8.790749375747174E-1
 8.500000000000000E9    -5.105317423862142E-1   -8.153081802694736E-1
 8.510000000000000E9    -6.181031776083484E-1   -7.356697078209418E-1
 8.520000000000000E9    -7.149123436246686E-1   -6.420888775926820E-1
 8.530000000000000E9    -7.983187244519514E-1   -5.367465778864451E-1
 8.540000000000000E9    -8.661409711382884E-1   -4.217082226500237E-1
 8.550000000000000E9    -9.166331117307708E-1   -2.994641423394930E-1
 8.560000000000000E9    -9.490408030343799E-1   -1.720249924938624E-1
 8.570000000000000E9    -9.628274969915078E-1   -4.155218205504024E-2
 8.580000000000000E9    -9.580987286947721E-1    8.969076619316337E-2
 8.590000000000000E9    -9.353713516364132E-1    2.193279902674740E-1
 8.600000000000000E9    -8.956955565293164E-1    3.447576514073289E-1
 8.610000000000000E9    -8.405164889731622E-1    4.632961548012052E-1
 8.620000000000000E9    -7.718026851650552E-1    5.724066218298397E-1
 8.630000000000000E9    -6.914611136257177E-1    6.701046889539897E-1
 8.640000000000000E9    -6.009404994664933E-1    7.548053730084674E-1
 8.650000000000000E9    -5.020337171775140E-1    8.255325177138398E-1
 8.660000000000000E9    -3.965265902657990E-1    8.817115537693623E-1
 8.670000000000000E9    -2.856608159179876E-1    9.231135051373944E-1
 8.680000000000000E9    -1.708130302391178E-1    9.498915408799053E-1
 8.690000000000000E9    -5.387289828252281E-2    9.626342778721093E-1
 8.700000000000000E9     6.350871890671522E-2    9.612420744681159E-1
 8.710000000000000E9     1.795699355512077E-1    9.465867430190879E-1
 8.720000000000000E9     2.915915493669530E-1    9.193270441369726E-1
 8.730000000000000E9     3.983109390984306E-1    8.802003353501502E-1
 8.740000000000000E9     4.982183583582100E-1    8.298340132311189E-1
 8.750000000000000E9     5.903708614065363E-1    7.687861421544260E-1
 8.760000000000000E9     6.737706897820058E-1    6.972166314309769E-1
 8.770000000000000E9     7.479824245988176E-1    6.161509474562817E-1
 8.780000000000000E9     8.123216171263068E-1    5.256783258308534E-1
 8.790000000000000E9     8.661739816689918E-1    4.269970086558605E-1
 8.800000000000000E9     9.090894495611170E-1    3.217323226999130E-1
 8.810000000000000E9     9.401108241261070E-1    2.113754962334823E-1
 8.820000000000000E9     9.587718885872446E-1    9.785910486039071E-2
 8.830000000000000E9     9.645436335978766E-1   -1.709311171110043E-2
 8.840000000000000E9     9.568071125139096E-1   -1.313191693025684E-1
 8.850000000000000E9     9.353017554148481E-1   -2.435828673294037E-1
 8.860000000000000E9     8.998694069133666E-1   -3.523146537268044E-1
 8.870000000000000E9     8.505528471617343E-1   -4.566532791765065E-1
 8.880000000000000E9     7.877820442454710E-1   -5.552153410152020E-1
 8.890000000000000E9     7.120480080029726E-1   -6.465636067688328E-1
 8.900000000000000E9     6.243077757500862E-1   -7.295849995420446E-1
 8.910000000000000E9     5.264119916098717E-1   -8.020662381787284E-1
 8.920000000000000E9     4.199852702800493E-1   -8.625423150936554E-1
 8.930000000000000E9     3.067970272109924E-1   -9.094059894358005E-1
 8.940000000000000E9     1.889493688691395E-1   -9.415759965832986E-1
 8.950000000000000E9     6.882513898701315E-2   -9.582010845170170E-1
 8.960000000000000E9    -5.196914924530424E-2   -9.587267810934639E-1
 8.970000000000000E9    -1.713746033981973E-1   -9.435934255415116E-1
 8.980000000000000E9    -2.880433073981752E-1   -9.131758094065362E-1
 8.990000000000000E9    -4.006082803584723E-1   -8.681884984037652E-1
 9.000000000000000E9    -5.064828610232993E-1   -8.095918414635472E-1
 9.010000000000000E9    -6.044338348322684E-1   -7.394154766578619E-1
 9.020000000000000E9    -6.925181863898878E-1   -6.591079523691854E-1
 9.030000000000000E9    -7.690741545125800E-1   -5.703159032899647E-1
 9.040000000000000E9    -8.328011251418997E-1   -4.753625117580179E-1
 9.050000000000000E9    -8.835290672761756E-1   -3.755754843166292E-1
 9.060000000000000E9    -9.211082920767790E-1   -2.728247121674134E-1
 9.070000000000000E9    -9.454160426404639E-1   -1.680568581054984E-1
 9.080000000000000E9    -9.573164239310040E-1   -6.275008486191470E-2
 9.090000000000000E9    -9.575119473923600E-1    4.225197499962684E-2
 9.100000000000000E9    -9.469427434605864E-1    1.459247804029411E-1
 9.110000000000000E9    -9.261719086410938E-1    2.467568135711472E-1
 9.120000000000000E9    -8.961420875266928E-1    3.433079958322448E-1
 9.130000000000000E9    -8.578004071226288E-1    4.342531941327284E-1
 9.140000000000000E9    -8.119087308793360E-1    5.184934248478442E-1
 9.150000000000000E9    -7.593694466239107E-1    5.953145166034032E-1
 9.160000000000000E9    -7.013068028354268E-1    6.642893942664908E-1
 9.170000000000000E9    -6.383718263753172E-1    7.254509430499912E-1
 9.180000000000000E9    -5.710475744657186E-1    7.792538336934463E-1
 9.190000000000000E9    -5.001314425872192E-1    8.260395816494054E-1
 9.200000000000000E9    -4.260896281225968E-1    8.664097551349014E-1
 9.210000000000000E9    -3.494346427015800E-1    9.004900647996876E-1
 9.220000000000000E9    -2.708010218787930E-1    9.279363476009741E-1
 9.230000000000000E9    -1.912218416599765E-1    9.489077343181859E-1
 9.240000000000000E9    -1.110931306984840E-1    9.630437947280476E-1
 9.250000000000000E9    -3.136060308448364E-2    9.702565206209929E-1
 9.260000000000000E9     4.691518478621070E-2    9.706922863369567E-1
 9.270000000000000E9     1.236570966305040E-1    9.644922003292248E-1
 9.280000000000000E9     1.983994716025765E-1    9.520582161720597E-1
 9.290000000000000E9     2.710750001661619E-1    9.337402187930658E-1
 9.300000000000000E9     3.420797510253416E-1    9.099202300901120E-1
 9.310000000000000E9     4.113106249633607E-1    8.807155365749736E-1
 9.320000000000000E9     4.785937622269723E-1    8.464943403727709E-1
 9.330000000000000E9     5.436352974420927E-1    8.071693401392707E-1
 9.340000000000000E9     6.059579579977311E-1    7.629787375149178E-1
 9.350000000000000E9     6.648086513178578E-1    7.139630547397213E-1
 9.360000000000000E9     7.196228845104539E-1    6.599094922570983E-1
 9.370000000000000E9     7.697054467064014E-1    6.016800034057374E-1
 9.380000000000000E9     8.148399746854924E-1    5.392522133309622E-1
 9.390000000000000E9     8.547042798520025E-1    4.729080165982276E-1
 9.400000000000000E9     8.894379711980017E-1    4.029165560470963E-1
 9.410000000000000E9     9.186096522250494E-1    3.293654577551187E-1
 9.420000000000000E9     9.425013295881968E-1    2.524698473740281E-1
 9.430000000000000E9     9.605916215646808E-1    1.719664770536915E-1
 9.440000000000000E9     9.720521793911253E-1    8.808686860638580E-2
 9.450000000000000E9     9.761271669896298E-1    1.152074045858647E-3
 9.460000000000000E9     9.718685336213186E-1   -8.834992921234337E-2
 9.470000000000000E9     9.586595546439555E-1   -1.799527035558440E-1
 9.480000000000000E9     9.357794818709366E-1   -2.720077310764084E-1
 9.490000000000000E9     9.025675764038399E-1   -3.638002323070872E-1
 9.500000000000000E9     8.594807918843254E-1   -4.543388084731853E-1
 9.510000000000000E9     8.052247020501754E-1   -5.419472725792512E-1
 9.520000000000000E9     7.396888656037180E-1   -6.259774818736669E-1
 9.530000000000000E9     6.630504383016222E-1   -7.050347347760070E-1
 9.540000000000000E9     5.748557779176300E-1   -7.773268415620248E-1
 9.550000000000000E9     4.747238073057930E-1   -8.406718864457582E-1
 9.560000000000000E9     3.630188631794926E-1   -8.925023437461770E-1
 9.570000000000000E9     2.405695646286602E-1   -9.301098651460897E-1
 9.580000000000000E9     1.095455946822853E-1   -9.511386403697832E-1
 9.590000000000000E9    -2.736394071641272E-2   -9.532393617591582E-1
 9.600000000000000E9    -1.671207122256813E-1   -9.347172315875140E-1
 9.610000000000000E9    -3.057876658878314E-1   -8.951354240454428E-1
 9.620000000000000E9    -4.394566828968462E-1   -8.339834289966085E-1
 9.630000000000000E9    -5.641972876623621E-1   -7.515871662642629E-1
 9.640000000000000E9    -6.756769710883870E-1   -6.496475726165772E-1
 9.650000000000000E9    -7.698749656831422E-1   -5.297533387282165E-1
 9.660000000000000E9    -8.431133380975491E-1   -3.955971025146012E-1
 9.670000000000000E9    -8.930848915060823E-1   -2.516267949719286E-1
 9.680000000000000E9    -9.186332951699444E-1   -1.029107195689156E-1
 9.690000000000000E9    -9.202185725210178E-1    4.553478590955370E-2
 9.700000000000000E9    -8.992509764516108E-1    1.891780792344788E-1
 9.710000000000000E9    -8.582219468249416E-1    3.239250976370531E-1
 9.720000000000000E9    -8.000154360140590E-1    4.473130144896817E-1
 9.730000000000000E9    -7.273778171755209E-1    5.570388878843942E-1
 9.740000000000000E9    -6.433454499339438E-1    6.520110196192791E-1
 9.750000000000000E9    -5.505222623919177E-1    7.315942125874098E-1
 9.760000000000000E9    -4.515057191330364E-1    7.958743544014283E-1
 9.770000000000000E9    -3.488189605584113E-1    8.450300427494407E-1
 9.780000000000000E9    -2.451548858918699E-1    8.798534272968676E-1
 9.790000000000000E9    -1.424631837179207E-1    9.017784390354308E-1
 9.800000000000000E9    -4.253989069985164E-2    9.120222151724282E-1
 9.810000000000000E9     5.336135941428628E-2    9.120841407703119E-1
 9.820000000000000E9     1.442222626267254E-1    9.032464750629686E-1
 9.830000000000000E9     2.303178616635777E-1    8.863335926916841E-1
 9.840000000000000E9     3.111438766848342E-1    8.622112772469444E-1
 9.850000000000000E9     3.869315990250118E-1    8.313488177178844E-1
 9.860000000000000E9     4.573992600060982E-1    7.941506307915872E-1
 9.870000000000000E9     5.226564697654034E-1    7.515359309284758E-1
 9.880000000000000E9     5.827853461171564E-1    7.045164686974590E-1
 9.890000000000000E9     6.375199518218561E-1    6.540963031739121E-1
 9.900000000000000E9     6.869516200980833E-1    6.013737672479037E-1
 9.910000000000000E9     7.311627276168126E-1    5.470301445602888E-1
 9.920000000000000E9     7.702848976538204E-1    4.916486012618680E-1
 9.930000000000000E9     8.043707944521864E-1    4.356607178098751E-1
 9.940000000000000E9     8.336170046993696E-1    3.789451328838268E-1
 9.950000000000000E9     8.579016342529664E-1    3.213840541904247E-1
 9.960000000000000E9     8.773687529027411E-1    2.628120638228993E-1
 9.970000000000000E9     8.922465318150087E-1    2.029792642690630E-1
 9.980000000000000E9     9.028160130837994E-1    1.421207682353304E-1
 9.990000000000000E9     9.090284398532187E-1    8.056519830861660E-2
 1.000000000000000E+10   9.116547561902179E-1    1.894104234336724E-2
 1.001000000000000E+10   9.106984184138756E-1   -4.221178325466346E-2
 1.002000000000000E+10   9.064657842307572E-1   -1.024701133856785E-1
 1.003000000000000E+10   8.991385074651993E-1   -1.613381356010897E-1
 1.004000000000000E+10   8.885691187033522E-1   -2.187737439521929E-1
 1.005000000000000E+10   8.745844288958377E-1   -2.748412858491436E-1
 1.006000000000000E+10   8.567868486666887E-1   -3.298577935730049E-1
 1.007000000000000E+10   8.346948875203151E-1   -3.839057994385384E-1
 1.008000000000000E+10   8.080087826827004E-1   -4.373360793578843E-1
 1.009000000000000E+10   7.766152696319899E-1   -4.903711435735023E-1
 1.010000000000000E+10   7.407167207127605E-1   -5.425313601853167E-1
 1.011000000000000E+10   7.004970787784754E-1   -5.934882539156494E-1
 1.012000000000000E+10   6.568366221760662E-1   -6.426629783233359E-1
 1.013000000000000E+10   6.098478605428456E-1   -6.894973569975897E-1
 1.014000000000000E+10   5.600108194348928E-1   -7.334274583036842E-1
 1.015000000000000E+10   5.073961173847540E-1   -7.738411628350188E-1
 1.016000000000000E+10   4.514289345619905E-1   -8.104312413879131E-1
 1.017000000000000E+10   3.917517266857721E-1   -8.428229698432119E-1
 1.018000000000000E+10   3.277535955335198E-1   -8.705770106765539E-1
 1.019000000000000E+10   2.591115623170825E-1   -8.934688543690410E-1
 1.020000000000000E+10   1.854765260871680E-1   -9.112367719999561E-1
 1.021000000000000E+10   1.071880752305450E-1   -9.232730729036728E-1
 1.022000000000000E+10   2.489481941065140E-2   -9.289930768853316E-1
 1.023000000000000E+10  -5.994355380598201E-2   -9.280583871491205E-1
 1.024000000000000E+10  -1.464066051735647E-1   -9.199534256751543E-1
 1.025000000000000E+10  -2.328033576039953E-1   -9.040331808997589E-1
 1.026000000000000E+10  -3.184241973065202E-1   -8.798500584782000E-1
 1.027000000000000E+10  -4.022147915599126E-1   -8.467887626282183E-1
 1.028000000000000E+10  -4.840075353252631E-1   -8.038956194645666E-1
 1.029000000000000E+10  -5.631823900995643E-1   -7.502437087459939E-1
 1.030000000000000E+10  -6.392096405822008E-1   -6.853311026037270E-1
 1.031000000000000E+10  -7.108972427410065E-1   -6.087832496197917E-1
 1.032000000000000E+10  -7.765934770049226E-1   -5.208140250070930E-1
 1.033000000000000E+10  -8.340699865892044E-1   -4.227853341057627E-1
 1.034000000000000E+10  -8.814948259603643E-1   -3.160598065700682E-1
 1.035000000000000E+10  -9.166941405438703E-1   -2.021542478674766E-1
 1.036000000000000E+10  -9.376550317749566E-1   -8.375167927851623E-2
 1.037000000000000E+10  -9.430943879147476E-1    3.766289814259949E-2
 1.038000000000000E+10  -9.317953233656028E-1    1.600301650468695E-1
 1.039000000000000E+10  -9.028998987923923E-1    2.816391873399379E-1
 1.040000000000000E+10  -8.564234470044733E-1    4.004018836459786E-1
 1.041000000000000E+10  -7.925776588194398E-1    5.142745087058417E-1
 1.042000000000000E+10  -7.125670090603697E-1    6.205462820687422E-1
 1.043000000000000E+10  -6.179517347771213E-1    7.162174212447142E-1
 1.044000000000000E+10  -5.113114298715000E-1    7.987553806777105E-1
 1.045000000000000E+10  -3.960494939171761E-1    8.653800034083938E-1
 1.046000000000000E+10  -2.748123942423978E-1    9.149323567688732E-1
 1.047000000000000E+10  -1.508870224423810E-1    9.466623886036464E-1
 1.048000000000000E+10  -2.633351802213555E-2    9.608067140156392E-1
 1.049000000000000E+10   9.748996273189110E-2    9.574341850689450E-1
 1.050000000000000E+10   2.183736774322395E-1    9.377635513660320E-1
 1.051000000000000E+10   3.346616519177222E-1    9.030326751095630E-1
 1.052000000000000E+10   4.449700509294843E-1    8.545189995251375E-1
 1.053000000000000E+10   5.473042291802670E-1    7.944197485594816E-1
 1.054000000000000E+10   6.398283100816943E-1    7.247315901180903E-1
 1.055000000000000E+10   7.213953759058627E-1    6.474076128494228E-1
 1.056000000000000E+10   7.911852783738617E-1    5.647634986191213E-1
 1.057000000000000E+10   8.489202597744689E-1    4.774515413918208E-1
 1.058000000000000E+10   8.948407210482727E-1    3.872372379429925E-1
 1.059000000000000E+10   9.296474405560606E-1    2.949878682501850E-1
 1.060000000000000E+10   9.538411906530875E-1    2.006969041815875E-1
 1.061000000000000E+10   9.681848033198464E-1    1.053076141531855E-1
 1.062000000000000E+10   9.733838318197283E-1    9.541503458516263E-3
 1.063000000000000E+10   9.700413686043513E-1   -8.496052357048534E-2
 1.064000000000000E+10   9.589218470287514E-1   -1.775033286847650E-1
 1.065000000000000E+10   9.398597368346616E-1   -2.664132554369242E-1
 1.066000000000000E+10   9.138556829980863E-1   -3.508088622689913E-1
 1.067000000000000E+10   8.813100349539426E-1   -4.294096373979597E-1
 1.068000000000000E+10   8.423801553059305E-1   -5.024685510117796E-1
 1.069000000000000E+10   7.975974082804375E-1   -5.701791416519560E-1
 1.070000000000000E+10   7.469410179017466E-1   -6.328394164324667E-1
 1.071000000000000E+10   6.903696168000713E-1   -6.911221952373510E-1
 1.072000000000000E+10   6.288344811163322E-1   -7.450335025651458E-1
 1.073000000000000E+10   5.624087366899354E-1   -7.945703578968798E-1
 1.074000000000000E+10   4.926235172469693E-1   -8.391325927869301E-1
 1.075000000000000E+10   4.199002279341495E-1   -8.781621525534528E-1
 1.076000000000000E+10   3.454985585658773E-1   -9.112325881911952E-1
 1.077000000000000E+10   2.699824762804593E-1   -9.373991222813924E-1
 1.078000000000000E+10   1.944199632725968E-1   -9.567275114920801E-1
 1.079000000000000E+10   1.187238567127252E-1   -9.685971807930195E-1
 1.080000000000000E+10   4.276821581675717E-2   -9.736611410417094E-1
 1.081000000000000E+10  -3.394880947456089E-2   -9.716978058351959E-1
 1.082000000000000E+10  -1.111268054589310E-1   -9.630520121851205E-1
 1.083000000000000E+10  -1.892421790846759E-1   -9.481459903523713E-1
 1.084000000000000E+10  -2.674932451480305E-1   -9.267682998169957E-1
 1.085000000000000E+10  -3.451169784457262E-1   -8.996145889862771E-1
 1.086000000000000E+10  -4.211060113162769E-1   -8.663374526383590E-1
 1.087000000000000E+10  -4.939238206039367E-1   -8.273604891462337E-1
 1.088000000000000E+10  -5.624830768111254E-1   -7.829500165640754E-1
 1.089000000000000E+10  -6.261010967531625E-1   -7.329691313864971E-1
 1.090000000000000E+10  -6.842275551352843E-1   -6.777148076835346E-1
 1.091000000000000E+10  -7.368648498085792E-1   -6.170544595444286E-1
 1.092000000000000E+10  -7.842450431322598E-1   -5.512696982824635E-1
 1.093000000000000E+10  -8.264699790801803E-1   -4.800299224739220E-1
 1.094000000000000E+10  -8.633502554684988E-1   -4.036886330244830E-1
 1.095000000000000E+10  -8.945664171243466E-1   -3.226594860738322E-1
 1.096000000000000E+10  -9.193959125770034E-1   -2.377715515339053E-1
 1.097000000000000E+10  -9.370126771723462E-1   -1.501507271231727E-1
 1.098000000000000E+10  -9.467104064662994E-1   -6.121941458830213E-2
 1.099000000000000E+10  -9.479960959350523E-1    2.779197646039633E-2
 1.100000000000000E+10  -9.404625815561920E-1    1.158610267997102E-1
 1.101000000000000E+10  -9.243540805230586E-1    2.023649490403675E-1
 1.102000000000000E+10  -8.997055515409808E-1    2.871597616160371E-1
 1.103000000000000E+10  -8.665174058613524E-1    3.700545768463895E-1
 1.104000000000000E+10  -8.250614150556023E-1    4.504572332331557E-1
 1.105000000000000E+10  -7.756402749497664E-1    5.281292608185582E-1
 1.106000000000000E+10  -7.183386605303561E-1    6.021032403311909E-1
 1.107000000000000E+10  -6.534688448421698E-1    6.711923248639576E-1
 1.108000000000000E+10  -5.818837567503250E-1    7.341939767283264E-1
 1.109000000000000E+10  -5.045448682777773E-1    7.894586104760051E-1
 1.110000000000000E+10  -4.220107396002912E-1    8.363729064454520E-1
 1.111000000000000E+10  -3.357340947108967E-1    8.737456632442461E-1
 1.112000000000000E+10  -2.465275604874703E-1    9.019414321846884E-1
 1.113000000000000E+10  -1.551856107238422E-1    9.209497451355139E-1
 1.114000000000000E+10  -6.225059719756434E-2    9.309002277024457E-1
 1.115000000000000E+10   3.175420478806319E-2    9.319035000861311E-1
 1.116000000000000E+10   1.258774769851011E-1    9.242978235457581E-1
 1.117000000000000E+10   2.195076598323074E-1    9.077743373339248E-1
 1.118000000000000E+10   3.109173658236659E-1    8.818473123590082E-1
 1.119000000000000E+10   3.988554374611568E-1    8.471550747883954E-1
 1.120000000000000E+10   4.820352715884232E-1    8.040956622542306E-1
 1.121000000000000E+10   5.595974720224773E-1    7.528715887043984E-1
 1.122000000000000E+10   6.307170094841321E-1    6.943884084068370E-1
 1.123000000000000E+10   6.952675368414005E-1    6.292971069815013E-1
 1.124000000000000E+10   7.531580116503228E-1    5.585864774498591E-1
 1.125000000000000E+10   8.042590355911179E-1    4.826139084861821E-1
 1.126000000000000E+10   8.482148895916406E-1    4.024365105993195E-1
 1.127000000000000E+10   8.849397220814395E-1    3.183485389163890E-1
 1.128000000000000E+10   9.136692002595194E-1    2.314107577743507E-1
 1.129000000000000E+10   9.338199536005540E-1    1.425694109451688E-1
 1.130000000000000E+10   9.451469485234556E-1    5.286451184475232E-2
 1.131000000000000E+10   9.475325159569814E-1   -3.699437457950294E-2
 1.132000000000000E+10   9.410158187812898E-1   -1.256122751740462E-1
 1.133000000000000E+10   9.258528433849219E-1   -2.127049800405500E-1
 1.134000000000000E+10   9.027180114840565E-1   -2.975812266443211E-1
 1.135000000000000E+10   8.720735309387866E-1   -3.801019633230521E-1
 1.136000000000000E+10   8.341169212164857E-1   -4.596694878875609E-1
 1.137000000000000E+10   7.891312937328173E-1   -5.361038801054414E-1
 1.138000000000000E+10   7.372807083152616E-1   -6.086262308844871E-1
 1.139000000000000E+10   6.786992824924819E-1   -6.762054311284503E-1
 1.140000000000000E+10   6.137933386437264E-1   -7.379094839270071E-1
 1.141000000000000E+10   5.429538500334254E-1   -7.932923266216266E-1
 1.142000000000000E+10   4.669243623018402E-1   -8.410750795763755E-1
 1.143000000000000E+10   3.867351559804038E-1   -8.811987825143961E-1
 1.144000000000000E+10   3.032680370169915E-1   -9.136468561093454E-1
 1.145000000000000E+10   2.171915024666577E-1   -9.382060668530882E-1
 1.146000000000000E+10   1.284471277978899E-1   -9.551637744292150E-1
 1.147000000000000E+10   3.831516470819591E-2   -9.642596409328738E-1
 1.148000000000000E+10  -5.296039024531166E-2   -9.645654745959492E-1
 1.149000000000000E+10  -1.443719756154184E-1   -9.567295004574476E-1
 1.150000000000000E+10  -2.355661947064555E-1   -9.392381696899544E-1
 1.151000000000000E+10  -3.248849187111842E-1   -9.124813685851957E-1
 1.152000000000000E+10  -4.114546754985338E-1   -8.768193240014081E-1
 1.153000000000000E+10  -4.946524483214310E-1   -8.324577104944053E-1
 1.154000000000000E+10  -5.731791732092687E-1   -7.795986127120526E-1
 1.155000000000000E+10  -6.463962221707068E-1   -7.190100608736897E-1
 1.156000000000000E+10  -7.134307661573704E-1   -6.515985491723396E-1
 1.157000000000000E+10  -7.743456306403168E-1   -5.778315796428191E-1
 1.158000000000000E+10  -8.282455104615774E-1   -4.981083539892442E-1
 1.159000000000000E+10  -8.740977472144796E-1   -4.130151038074588E-1
 1.160000000000000E+10  -9.113611547409148E-1   -3.223107612390716E-1
 1.161000000000000E+10  -9.391359311069307E-1   -2.276186988937686E-1
 1.162000000000000E+10  -9.564902253432157E-1   -1.289339909944718E-1
 1.163000000000000E+10  -9.630813092723738E-1   -2.853561897737587E-2
 1.164000000000000E+10  -9.589234012775081E-1    7.256729950785787E-2
 1.165000000000000E+10  -9.446975746853813E-1    1.730073932726699E-1
 1.166000000000000E+10  -9.204533254121683E-1    2.709041089750245E-1
 1.167000000000000E+10  -8.868851015994123E-1    3.657906620015723E-1
 1.168000000000000E+10  -8.440604811933639E-1    4.562966766489930E-1
 1.169000000000000E+10  -7.919479353300796E-1    5.417008312383816E-1
 1.170000000000000E+10  -7.309382116870058E-1    6.212986933594867E-1
 1.171000000000000E+10  -6.614832491681670E-1    6.933454321000355E-1
 1.172000000000000E+10  -5.840982000865949E-1    7.576300600442554E-1
 1.173000000000000E+10  -4.997167823571523E-1    8.132562030583580E-1
 1.174000000000000E+10  -4.092264668741760E-1    8.597126134836981E-1
 1.175000000000000E+10  -3.145699473701840E-1    8.965689343497518E-1
 1.176000000000000E+10  -2.172440695595217E-1    9.235058218417082E-1
 1.177000000000000E+10  -1.186389887061388E-1    9.404738746729862E-1
 1.178000000000000E+10  -2.016977913758960E-2    9.474678929763982E-1
 1.179000000000000E+10   7.674913984236799E-2    9.446387344829584E-1
 1.180000000000000E+10   1.715215008630440E-1    9.319559143342534E-1
 1.181000000000000E+10   2.633738170584203E-1    9.094506075144406E-1
 1.182000000000000E+10   3.518724029451465E-1    8.775906653062666E-1
 1.183000000000000E+10   4.361410237310098E-1    8.365285348993475E-1
 1.184000000000000E+10   5.154857063458673E-1    7.874726666203977E-1
 1.185000000000000E+10   5.894019004093002E-1    7.313440872976511E-1
 1.186000000000000E+10   6.569293851366529E-1    6.694607703839670E-1
 1.187000000000000E+10   7.179903793336858E-1    6.025683379098568E-1
 1.188000000000000E+10   7.720813379961408E-1    5.316505947588411E-1
 1.189000000000000E+10   8.187222742278725E-1    4.574214439986500E-1
 1.190000000000000E+10   8.576697075784060E-1    3.803060359820498E-1
 1.191000000000000E+10   8.884498270891741E-1    3.006716565653943E-1
 1.192000000000000E+10   9.111700367485092E-1    2.191961263935658E-1
 1.193000000000000E+10   9.257944491380921E-1    1.361844905535551E-1
 1.194000000000000E+10   9.325299932252447E-1    5.227596121698812E-2
 1.195000000000000E+10   9.320294789706952E-1   -3.158292899430243E-2
 1.196000000000000E+10   9.247079397543586E-1   -1.145777903156851E-1
 1.197000000000000E+10   9.115230216682014E-1   -1.956934261917634E-1
 1.198000000000000E+10   8.919616496180749E-1   -2.738958501024334E-1
 1.199000000000000E+10   8.671228081731839E-1   -3.489125559490112E-1
 1.200000000000000E+10   8.370525529678979E-1   -4.199206829092644E-1
 1.201000000000000E+10   8.012288821938922E-1   -4.868228905617481E-1
 1.202000000000000E+10   7.603096790150498E-1   -5.498003039873263E-1
 1.203000000000000E+10   7.138036371066251E-1   -6.085753618827746E-1
 1.204000000000000E+10   6.618155595037081E-1   -6.632705602129573E-1
 1.205000000000000E+10   6.047923453805572E-1   -7.140204376780467E-1
 1.206000000000000E+10   5.433718269883093E-1   -7.607287635317649E-1
 1.207000000000000E+10   4.785064337151049E-1   -8.028414120864464E-1
 1.208000000000000E+10   4.108557452262989E-1   -8.404382621177195E-1
 1.209000000000000E+10   3.414774388103871E-1   -8.726734352985872E-1
 1.210000000000000E+10   2.710592221730838E-1   -8.993758286141701E-1
 1.211000000000000E+10   1.995968541283271E-1   -9.201620604083128E-1
 1.212000000000000E+10   1.275814078988269E-1   -9.344901194571533E-1
 1.213000000000000E+10   5.476649022234383E-2   -9.424481200089065E-1
 1.214000000000000E+10  -1.910312142113586E-2   -9.436160509864677E-1
 1.215000000000000E+10  -9.353375508761748E-2   -9.385840702766407E-1
 1.216000000000000E+10  -1.687256060636080E-1   -9.273284312486114E-1
 1.217000000000000E+10  -2.438003240872994E-1   -9.103393151693355E-1
 1.218000000000000E+10  -3.182365877638694E-1   -8.877854475164114E-1
 1.219000000000000E+10  -3.911056475143789E-1   -8.599991712198660E-1
 1.220000000000000E+10  -4.614760122712030E-1   -8.271637254414909E-1
 1.221000000000000E+10  -5.284229684138075E-1   -7.890491283539633E-1
 1.222000000000000E+10  -5.917858434999482E-1   -7.456500995001032E-1
 1.223000000000000E+10  -6.505898528095049E-1   -6.967800923611559E-1
 1.224000000000000E+10  -7.052603413288262E-1   -6.424019396308279E-1
 1.225000000000000E+10  -7.554731743335693E-1   -5.819866965259128E-1
 1.226000000000000E+10  -8.013207900876302E-1   -5.159280478578957E-1
 1.227000000000000E+10  -8.420168882642175E-1   -4.443522430764690E-1
 1.228000000000000E+10  -8.776495706799435E-1   -3.685023224695064E-1
 1.229000000000000E+10  -9.077201124825176E-1   -2.889811775244701E-1
 1.230000000000000E+10  -9.316252253204209E-1   -2.071519922948817E-1
 1.231000000000000E+10  -9.485880633909853E-1   -1.233693879476266E-1
 1.232000000000000E+10  -9.584210359105689E-1   -3.878488978119392E-2
 1.233000000000000E+10  -9.601161029952148E-1    4.582388128627019E-2
 1.234000000000000E+10  -9.536325775340104E-1    1.308198184532020E-1
 1.235000000000000E+10  -9.380540498221135E-1    2.159617559059898E-1
 1.236000000000000E+10  -9.138515645472302E-1    3.008089779954430E-1
 1.237000000000000E+10  -8.802490647208298E-1    3.852753876757163E-1
 1.238000000000000E+10  -8.379576243308098E-1    4.681918293690317E-1
 1.239000000000000E+10  -7.868845484369239E-1    5.488994944389920E-1
 1.240000000000000E+10  -7.282011261046195E-1    6.255431433921875E-1
 1.241000000000000E+10  -6.624177592074422E-1    6.967114742561383E-1
 1.242000000000000E+10  -5.898215838559647E-1    7.608286580541445E-1
 1.243000000000000E+10  -5.108505635446678E-1    8.167782716614663E-1
 1.244000000000000E+10  -4.264383872339536E-1    8.641290387596956E-1
 1.245000000000000E+10  -3.366971120015467E-1    9.016867555623200E-1
 1.246000000000000E+10  -2.416621457117328E-1    9.291858395853941E-1
 1.247000000000000E+10  -1.428203362418381E-1    9.465813293057489E-1
 1.248000000000000E+10  -4.058688967840086E-2    9.535560800003139E-1
 1.249000000000000E+10   6.367835839417516E-2    9.498555481992423E-1
 1.250000000000000E+10   1.674020820790285E-1    9.353275034434543E-1
