#  HZ   S   RI   R     50.00 
! Rohde & Schwarz Vector Network Analyzer 
! Rohde-Schwarz,ZNA43-4Port,1332450044101932,2.92
! Created: UTC 6/1/2026, 11:34:32 AM
! freq[Hz]                re:S11                  im:S11
 8.000000000000000E9     5.204057936287790E-1    8.273854034075112E-1
 8.010000000000000E9     5.902018417790882E-1    7.800248681676408E-1
 8.020000000000000E9     6.567789709995929E-1    7.248366911101449E-1
 8.030000000000000E9     7.197529015247743E-1    6.614920661330143E-1
 8.040000000000000E9     7.784616052835137E-1    5.892738259574700E-1
 8.050000000000000E9     8.319688688066502E-1    5.084256851252010E-1
 8.060000000000000E9     8.788541271468338E-1    4.193032857347011E-1
 8.070000000000000E9     9.181239358965171E-1    3.222548262783401E-1
 8.080000000000000E9     9.481901203531683E-1    2.179519162245239E-1
 8.090000000000000E9     9.672384526193815E-1    1.073892736951437E-1
 8.100000000000000E9     9.731422385745880E-1   -9.389131922182952E-3
 8.110000000000000E9     9.637375262200967E-1   -1.313163773255411E-1
 8.120000000000000E9     9.369114100751592E-1   -2.569264116931901E-1
 8.130000000000000E9     8.897034694805608E-1   -3.841703188329650E-1
 8.140000000000000E9     8.204314088344995E-1   -5.101659344476914E-1
 8.150000000000000E9     7.273834672161053E-1   -6.309993115365899E-1
 8.160000000000000E9     6.105888431146272E-1   -7.414652196317402E-1
 8.170000000000000E9     4.703963737842178E-1   -8.355545040217212E-1
 8.180000000000000E9     3.095234743189599E-1   -9.068735880685742E-1
 8.190000000000000E9     1.317854869306757E-1   -9.488107121786633E-1
 8.200000000000000E9    -5.665310431301950E-2   -9.556936022461664E-1
 8.210000000000000E9    -2.484417241412087E-1   -9.229381669175970E-1
 8.220000000000000E9    -4.336218691984300E-1   -8.487016315510671E-1
 8.230000000000000E9    -6.017523822271647E-1   -7.338971494632991E-1
 8.240000000000000E9    -7.406352215074915E-1   -5.823219184103600E-1
 8.250000000000000E9    -8.313063377232116E-1   -4.088429998691008E-1
 8.260000000000000E9    -8.981868790989278E-1   -2.497939634021946E-1
 8.270000000000000E9    -9.442112581466648E-1   -6.398002531010985E-2
 8.280000000000000E9    -9.448462498908646E-1    1.238563789341533E-1
 8.290000000000000E9    -9.086888489186081E-1    2.997199771996292E-1
 8.300000000000000E9    -8.422838909469866E-1    4.585377864779165E-1
 8.310000000000000E9    -7.515915805742497E-1    5.969723731633373E-1
 8.320000000000000E9    -6.424449769010060E-1    7.131083611723453E-1
 8.330000000000000E9    -5.204641408706766E-1    8.063524251536056E-1
 8.340000000000000E9    -3.907358854635182E-1    8.771898317674248E-1
 8.350000000000000E9    -2.577566768280341E-1    9.263882121442694E-1
 8.360000000000000E9    -1.258187974821143E-1    9.558123221456114E-1
 8.370000000000000E9     2.826723506718981E-3    9.670999232057172E-1
 8.380000000000000E9     1.260801836382696E-1    9.614150164832050E-1
 8.390000000000000E9     2.428670155514221E-1    9.405056027294287E-1
 8.400000000000000E9     3.526328939176465E-1    9.058073761685107E-1
 8.410000000000000E9     4.550223444284731E-1    8.585638711785850E-1
 8.420000000000000E9     5.496388427570412E-1    7.999700554252581E-1
 8.430000000000000E9     6.364164863826309E-1    7.315815447144324E-1
 8.440000000000000E9     7.145086702232554E-1    6.549013094337828E-1
 8.450000000000000E9     7.833501379659381E-1    5.715551144809362E-1
 8.460000000000000E9     8.421379750325280E-1    4.829486186571225E-1
 8.470000000000000E9     8.906460301204076E-1    3.903756705322475E-1
 8.480000000000000E9     9.282273747450384E-1    2.949212084383113E-1
 8.490000000000000E9     9.548323748639445E-1    1.970533990465620E-1
 8.500000000000000E9     9.705239372513912E-1    9.741474480323006E-2
 8.510000000000000E9     9.743844381689185E-1   -4.484126128632943E-3
 8.520000000000000E9     9.669856986676960E-1   -1.080453629324843E-1
 8.530000000000000E9     9.479367721651748E-1   -2.116912187477274E-1
 8.540000000000000E9     9.177648053615974E-1   -3.144633638209723E-1
 8.550000000000000E9     8.767231909063790E-1   -4.147718841296481E-1
 8.560000000000000E9     8.248399806078255E-1   -5.108651265461592E-1
 8.570000000000000E9     7.629921792822566E-1   -6.009316073612193E-1
 8.580000000000000E9     6.913196492447039E-1   -6.836456268095394E-1
 8.590000000000000E9     6.104223454816298E-1   -7.574452631849926E-1
 8.600000000000000E9     5.203543096247256E-1   -8.213516043820377E-1
 8.610000000000000E9     4.219511705150876E-1   -8.745966561956933E-1
 8.620000000000000E9     3.158858073345744E-1   -9.162164306668209E-1
 8.630000000000000E9     2.032802129776724E-1   -9.453559251441485E-1
 8.640000000000000E9     8.610067591909105E-2   -9.616704272365140E-1
 8.650000000000000E9    -3.352051337810702E-2   -9.642509075075315E-1
 8.660000000000000E9    -1.536207914551045E-1   -9.529217082178254E-1
 8.670000000000000E9    -2.715852715473090E-1   -9.272890898363241E-1
 8.680000000000000E9    -3.850455545068922E-1   -8.874090426332318E-1
 8.690000000000000E9    -4.921602741651027E-1   -8.334937659399148E-1
 8.700000000000000E9    -5.915529326491447E-1   -7.660373934530171E-1
 8.710000000000000E9    -6.814140724528978E-1   -6.856769192507608E-1
 8.720000000000000E9    -7.610054529727173E-1   -5.935064981907077E-1
 8.730000000000000E9    -8.287962920178267E-1   -4.911136980936769E-1
 8.740000000000000E9    -8.836233703749647E-1   -3.805843009579577E-1
 8.750000000000000E9    -9.247601031028000E-1   -2.641807867083475E-1
 8.760000000000000E9    -9.516452043340052E-1   -1.447862255928721E-1
 8.770000000000000E9    -9.637326912633488E-1   -2.461735683697601E-2
 8.780000000000000E9    -9.611225875653555E-1    9.428535339393938E-2
 8.790000000000000E9    -9.440265948249751E-1    2.101118611722061E-1
 8.800000000000000E9    -9.126745457928637E-1    3.215156319937947E-1
 8.810000000000000E9    -8.677912998258935E-1    4.273186917786368E-1
 8.820000000000000E9    -8.101935046631559E-1    5.266345638293285E-1
 8.830000000000000E9    -7.410471406289583E-1    6.184193795914935E-1
 8.840000000000000E9    -6.615916236788228E-1    7.016312239373779E-1
 8.850000000000000E9    -5.736638408672396E-1    7.752623726639448E-1
 8.860000000000000E9    -4.787185879011938E-1    8.380265595701812E-1
 8.870000000000000E9    -3.786886736323362E-1    8.892965612701098E-1
 8.880000000000000E9    -2.751079147780812E-1    9.280071570367661E-1
 8.890000000000000E9    -1.688955318055587E-1    9.540569558926668E-1
 8.900000000000000E9    -6.125450184829803E-2    9.673028653972072E-1
 8.910000000000000E9     4.689932850647868E-2    9.675321687139572E-1
 8.920000000000000E9     1.552592950759978E-1    9.549546328317210E-1
 8.930000000000000E9     2.627555579435678E-1    9.298958241307067E-1
 8.940000000000000E9     3.680950357283400E-1    8.925456021153497E-1
 8.950000000000000E9     4.695134629135964E-1    8.431781441991736E-1
 8.960000000000000E9     5.655160133840280E-1    7.827957528280396E-1
 8.970000000000000E9     6.540756264209272E-1    7.115364047572067E-1
 8.980000000000000E9     7.338726595343291E-1    6.301636576458517E-1
 8.990000000000000E9     8.033467957740902E-1    5.394814089745931E-1
 9.000000000000000E9     8.615765254100574E-1    4.397487320482671E-1
 9.010000000000000E9     9.071235272508357E-1    3.317794514147391E-1
 9.020000000000000E9     9.391251381117581E-1    2.163712103134196E-1
 9.030000000000000E9     9.567710975914755E-1    9.436757902741473E-2
 9.040000000000000E9     9.588108990195680E-1   -3.241456437444818E-2
 9.050000000000000E9     9.443604075508941E-1   -1.614362541857851E-1
 9.060000000000000E9     9.124607264684524E-1   -2.898935523655514E-1
 9.070000000000000E9     8.630629225496382E-1   -4.148558741519044E-1
 9.080000000000000E9     7.955249925531098E-1   -5.329622848395557E-1
 9.090000000000000E9     7.107910318190207E-1   -6.409368965807949E-1
 9.100000000000000E9     6.098235796069351E-1   -7.360611636732848E-1
 9.110000000000000E9     4.938266863548033E-1   -8.158462868152225E-1
 9.120000000000000E9     3.648771333770348E-1   -8.780134647895951E-1
 9.130000000000000E9     2.256327262032691E-1   -9.206703638898731E-1
 9.140000000000000E9     7.920445594427666E-2   -9.422842677446961E-1
 9.150000000000000E9    -7.023693561298222E-2   -9.416291622178871E-1
 9.160000000000000E9    -2.182224608392010E-1   -9.180435467750481E-1
 9.170000000000000E9    -3.598492474514370E-1   -8.724457396161199E-1
 9.180000000000000E9    -4.911244232690537E-1   -8.060611061092107E-1
 9.190000000000000E9    -6.082231465540889E-1   -7.216875157830133E-1
 9.200000000000000E9    -7.086566178598388E-1   -6.226241614137350E-1
 9.210000000000000E9    -7.917977889330715E-1   -5.119576873816021E-1
 9.220000000000000E9    -8.568791839440191E-1   -3.925224067706024E-1
 9.230000000000000E9    -9.032668656386232E-1   -2.677576701896416E-1
 9.240000000000000E9    -9.322222769218709E-1   -1.402077294555868E-1
 9.250000000000000E9    -9.437964133442377E-1   -1.252905341909388E-2
 9.260000000000000E9    -9.387695014799570E-1    1.120755886998635E-1
 9.270000000000000E9    -9.185818322272702E-1    2.311906616346654E-1
 9.280000000000000E9    -8.845250172557143E-1    3.428343391506502E-1
 9.290000000000000E9    -8.387214362044202E-1    4.456735572088095E-1
 9.300000000000000E9    -7.829107524224905E-1    5.385682258586314E-1
 9.310000000000000E9    -7.190558182405381E-1    6.219517155181135E-1
 9.320000000000000E9    -6.487052317330892E-1    6.954528356445763E-1
 9.330000000000000E9    -5.732269001073098E-1    7.596773070636462E-1
 9.340000000000000E9    -4.937722341380676E-1    8.147924884420632E-1
 9.350000000000000E9    -4.114697673990921E-1    8.611372033747313E-1
 9.360000000000000E9    -3.270371000498835E-1    8.986905263979843E-1
 9.370000000000000E9    -2.415353519545173E-1    9.274185794340375E-1
 9.380000000000000E9    -1.559433099122139E-1    9.473826556518660E-1
 9.390000000000000E9    -7.117311471525663E-2    9.587107052163528E-1
 9.400000000000000E9     1.195568328272511E-2    9.620723283258606E-1
 9.410000000000000E9     9.306446224370488E-2    9.580259888338961E-1
 9.420000000000000E9     1.716218581976446E-1    9.473278340447353E-1
 9.430000000000000E9     2.477646801972734E-1    9.307928756086625E-1
 9.440000000000000E9     3.214895690021170E-1    9.086588415859220E-1
 9.450000000000000E9     3.926861408356886E-1    8.812033738154631E-1
 9.460000000000000E9     4.613307383952202E-1    8.485998811758140E-1
 9.470000000000000E9     5.270341541583291E-1    8.108894401012783E-1
 9.480000000000000E9     5.893330934192604E-1    7.680985219247145E-1
 9.490000000000000E9     6.477372506231869E-1    7.203645378260731E-1
 9.500000000000000E9     7.018835708750434E-1    6.682230427776960E-1
 9.510000000000000E9     7.514431527432556E-1    6.119999438677713E-1
 9.520000000000000E9     7.963898884436927E-1    5.519634522231571E-1
 9.530000000000000E9     8.366120950718814E-1    4.889470822287804E-1
 9.540000000000000E9     8.720859309986554E-1    4.230443369568815E-1
 9.550000000000000E9     9.028458740722323E-1    3.543050253550279E-1
 9.560000000000000E9     9.285835299839552E-1    2.828415244914305E-1
 9.570000000000000E9     9.488902093777313E-1    2.084565322532039E-1
 9.580000000000000E9     9.632906431880257E-1    1.312313565858818E-1
 9.590000000000000E9     9.710920224228599E-1    5.143035653678132E-2
 9.600000000000000E9     9.717937872023839E-1   -3.091262528180464E-2
 9.610000000000000E9     9.650475241353668E-1   -1.150754040286175E-1
 9.620000000000000E9     9.501832899711443E-1   -2.003886614326351E-1
 9.630000000000000E9     9.272744938548799E-1   -2.862495558672718E-1
 9.640000000000000E9     8.960368446650431E-1   -3.716521886030488E-1
 9.650000000000000E9     8.562239379004363E-1   -4.561383984709158E-1
 9.660000000000000E9     8.066966131516644E-1   -5.391750273888651E-1
 9.670000000000000E9     7.471077975371505E-1   -6.193922234455996E-1
 9.680000000000000E9     6.763089573121951E-1   -6.954737321579957E-1
 9.690000000000000E9     5.939296831222828E-1   -7.657812226195214E-1
 9.700000000000000E9     4.992066252120303E-1   -8.286141137543966E-1
 9.710000000000000E9     3.926179007344213E-1   -8.817353383089586E-1
 9.720000000000000E9     2.751826472614644E-1   -9.224089536843119E-1
 9.730000000000000E9     1.481284076992394E-1   -9.484012256701849E-1
 9.740000000000000E9     1.345183612693295E-2   -9.575032683037752E-1
 9.750000000000000E9    -1.261946071090195E-1   -9.471905816300685E-1
 9.760000000000000E9    -2.676980176218662E-1   -9.153168771553346E-1
 9.770000000000000E9    -4.071213681330503E-1   -8.601361206877435E-1
 9.780000000000000E9    -5.401220344278418E-1   -7.800362396993591E-1
 9.790000000000000E9    -6.612574026639572E-1   -6.755537857149480E-1
 9.800000000000000E9    -7.646442196020546E-1   -5.482955631501528E-1
 9.810000000000000E9    -8.452620295751241E-1   -4.022659912671868E-1
 9.820000000000000E9    -8.989144961907383E-1   -2.431488660566709E-1
 9.830000000000000E9    -9.240405399510367E-1   -7.752665685744835E-2
 9.840000000000000E9    -9.198988058685068E-1    8.775801359843360E-2
 9.850000000000000E9    -8.880606520964101E-1    2.465666382235423E-1
 9.860000000000000E9    -8.309868715911923E-1    3.938575895354925E-1
 9.870000000000000E9    -7.521962129657955E-1    5.256117878486636E-1
 9.880000000000000E9    -6.555799734642834E-1    6.388141731246028E-1
 9.890000000000000E9    -5.456844337427502E-1    7.316531610527134E-1
 9.900000000000000E9    -4.271826304281444E-1    8.037412682072721E-1
 9.910000000000000E9    -3.045414808426956E-1    8.554922384656066E-1
 9.920000000000000E9    -1.818401803166023E-1    8.883819388486117E-1
 9.930000000000000E9    -6.241913720741925E-2    9.041791312172310E-1
 9.940000000000000E9     5.169264226325428E-2    9.053144003673891E-1
 9.950000000000000E9     1.590990009248727E-1    8.933781162643508E-1
 9.960000000000000E9     2.589549527074637E-1    8.701921158353114E-1
 9.970000000000000E9     3.513859825582685E-1    8.371346935038756E-1
 9.980000000000000E9     4.361874622174435E-1    7.956554453581389E-1
 9.990000000000000E9     5.135532963348061E-1    7.468355281503248E-1
 1.000000000000000E+10   5.838404752358733E-1    6.924527229578993E-1
 1.001000000000000E+10   6.464892226397623E-1    6.329680617962584E-1
 1.002000000000000E+10   7.021763096529384E-1    5.706073191033877E-1
 1.003000000000000E+10   7.509139744681077E-1    5.065756121643814E-1
 1.004000000000000E+10   7.928838906557931E-1    4.416901413802800E-1
 1.005000000000000E+10   8.282689647298784E-1    3.764121788341167E-1
 1.006000000000000E+10   8.575034783814744E-1    3.111602505831185E-1
 1.007000000000000E+10   8.803844600596701E-1    2.454062247171538E-1
 1.008000000000000E+10   8.974403756807712E-1    1.789640542966844E-1
 1.009000000000000E+10   9.088005475728195E-1    1.115442578129913E-1
 1.010000000000000E+10   9.144798344175882E-1    4.314379290609460E-2
 1.011000000000000E+10   9.148389910200704E-1   -2.618926071325531E-2
 1.012000000000000E+10   9.103360037980073E-1   -9.555782995757350E-2
 1.013000000000000E+10   9.013816199823279E-1   -1.644763382018902E-1
 1.014000000000000E+10   8.882743073628577E-1   -2.319237065006794E-1
 1.015000000000000E+10   8.713745415353230E-1   -2.972690823987721E-1
 1.016000000000000E+10   8.503941705161349E-1   -3.603050161685145E-1
 1.017000000000000E+10   8.253680503838744E-1   -4.208015512332332E-1
 1.018000000000000E+10   7.957270484108812E-1   -4.786158343570424E-1
 1.019000000000000E+10   7.610264092338002E-1   -5.341116492925921E-1
 1.020000000000000E+10   7.210676716283114E-1   -5.875016272490242E-1
 1.021000000000000E+10   6.754676391430734E-1   -6.389947286435455E-1
 1.022000000000000E+10   6.241854868347695E-1   -6.883584413836464E-1
 1.023000000000000E+10   5.677672073122791E-1   -7.351172021548122E-1
 1.024000000000000E+10   5.069606674231825E-1   -7.786519843454240E-1
 1.025000000000000E+10   4.424344778085425E-1   -8.182620444114567E-1
 1.026000000000000E+10   3.750274919567145E-1   -8.531828664634368E-1
 1.027000000000000E+10   3.053975667392605E-1   -8.825855828912841E-1
 1.028000000000000E+10   2.333604017623885E-1   -9.060355368038862E-1
 1.029000000000000E+10   1.588862487121336E-1   -9.230590555953693E-1
 1.030000000000000E+10   8.133966934327189E-2   -9.331784223790921E-1
 1.031000000000000E+10   4.329455949195581E-4   -9.358630217303178E-1
 1.032000000000000E+10  -8.403112109018226E-2   -9.305628978576651E-1
 1.033000000000000E+10  -1.711684513521943E-1   -9.168736177587542E-1
 1.034000000000000E+10  -2.601221606423598E-1   -8.945826939018061E-1
 1.035000000000000E+10  -3.497925575206570E-1   -8.632278533767773E-1
 1.036000000000000E+10  -4.382459463293405E-1   -8.225220559425009E-1
 1.037000000000000E+10  -5.237347841224878E-1   -7.722576505722243E-1
 1.038000000000000E+10  -6.046500850408684E-1   -7.122550281743149E-1
 1.039000000000000E+10  -6.795362407234230E-1   -6.419862156503411E-1
 1.040000000000000E+10  -7.470620654926557E-1   -5.612272537845568E-1
 1.041000000000000E+10  -8.063516590469150E-1   -4.698336939903571E-1
 1.042000000000000E+10  -8.557521602247296E-1   -3.679745491622293E-1
 1.043000000000000E+10  -8.938439635562839E-1   -2.560072053633163E-1
 1.044000000000000E+10  -9.189711328071734E-1   -1.355901149731612E-1
 1.045000000000000E+10  -9.290623648461264E-1   -9.270757496178450E-3
 1.046000000000000E+10  -9.231183778178259E-1    1.198658034529309E-1
 1.047000000000000E+10  -8.998506097115960E-1    2.485043387163005E-1
 1.048000000000000E+10  -8.586427258161697E-1    3.733499070544056E-1
 1.049000000000000E+10  -7.997100447686277E-1    4.918676793629548E-1
 1.050000000000000E+10  -7.233311801557901E-1    6.007903657212991E-1
 1.051000000000000E+10  -6.304616013085914E-1    6.984901489690409E-1
 1.052000000000000E+10  -5.225601402782637E-1    7.826264574221191E-1
 1.053000000000000E+10  -4.017716791860171E-1    8.513429266872747E-1
 1.054000000000000E+10  -2.714997436167806E-1    9.024306576778319E-1
 1.055000000000000E+10  -1.351814499696865E-1    9.350085050985287E-1
 1.056000000000000E+10   2.367307806786259E-3    9.481125370136535E-1
 1.057000000000000E+10   1.378966546031667E-1    9.422875467758460E-1
 1.058000000000000E+10   2.677756279922506E-1    9.181217156756818E-1
 1.059000000000000E+10   3.893952598154135E-1    8.771450755321740E-1
 1.060000000000000E+10   5.016402635826442E-1    8.207567026561461E-1
 1.061000000000000E+10   6.034121045267536E-1    7.505402843166237E-1
 1.062000000000000E+10   6.939736781071287E-1    6.684414062457215E-1
 1.063000000000000E+10   7.725621884554897E-1    5.766608824155420E-1
 1.064000000000000E+10   8.391108192864063E-1    4.775344004286182E-1
 1.065000000000000E+10   8.926574262002994E-1    3.731320555818635E-1
 1.066000000000000E+10   9.329951017698076E-1    2.663852837723971E-1
 1.067000000000000E+10   9.599369200888653E-1    1.596928496628470E-1
 1.068000000000000E+10   9.739767602823984E-1    5.439015863584462E-2
 1.069000000000000E+10   9.758314962979254E-1   -4.803863679724141E-2
 1.070000000000000E+10   9.662124740485437E-1   -1.473907726127905E-1
 1.071000000000000E+10   9.457132191959766E-1   -2.437482385205087E-1
 1.072000000000000E+10   9.155956237930396E-1   -3.365163293538865E-1
 1.073000000000000E+10   8.762347841088159E-1   -4.259138278762014E-1
 1.074000000000000E+10   8.290163288466345E-1   -5.107159879528481E-1
 1.075000000000000E+10   7.744756777396241E-1   -5.904718330661916E-1
 1.076000000000000E+10   7.139817858178428E-1   -6.640636463484965E-1
 1.077000000000000E+10   6.480149385060117E-1   -7.304210913717397E-1
 1.078000000000000E+10   5.783502466293240E-1   -7.885985014696334E-1
 1.079000000000000E+10   5.049546181645059E-1   -8.380941580173450E-1
 1.080000000000000E+10   4.286674376872927E-1   -8.791905211728471E-1
 1.081000000000000E+10   3.491213007481627E-1   -9.121494421914775E-1
 1.082000000000000E+10   2.669101694897663E-1   -9.369989438461703E-1
 1.083000000000000E+10   1.817310240089856E-1   -9.547146225965445E-1
 1.084000000000000E+10   9.411118282829808E-2   -9.648285243447399E-1
 1.085000000000000E+10   5.055927297489119E-3   -9.679675978745704E-1
 1.086000000000000E+10  -8.483599836166822E-2   -9.637286919672940E-1
 1.087000000000000E+10  -1.738278733698254E-1   -9.519015836367655E-1
 1.088000000000000E+10  -2.603441027487820E-1   -9.325980088397786E-1
 1.089000000000000E+10  -3.436945152822897E-1   -9.055826446302585E-1
 1.090000000000000E+10  -4.229399858540568E-1   -8.709092139528964E-1
 1.091000000000000E+10  -4.978553396835458E-1   -8.285169553557682E-1
 1.092000000000000E+10  -5.683658086172363E-1   -7.789363371053478E-1
 1.093000000000000E+10  -6.347604782840887E-1   -7.221155962114377E-1
 1.094000000000000E+10  -6.968430861005959E-1   -6.581470962451832E-1
 1.095000000000000E+10  -7.542744225558533E-1   -5.873428510778440E-1
 1.096000000000000E+10  -8.061255852114996E-1   -5.102339045569573E-1
 1.097000000000000E+10  -8.516633337262762E-1   -4.275920877233486E-1
 1.098000000000000E+10  -8.893534794175241E-1   -3.406767901555619E-1
 1.099000000000000E+10  -9.183784061122172E-1   -2.507857791359093E-1
 1.100000000000000E+10  -9.378650850913639E-1   -1.589875379649995E-1
 1.101000000000000E+10  -9.476607731505809E-1   -6.626201892118501E-2
 1.102000000000000E+10  -9.476408469569505E-1    2.699920810492411E-2
 1.103000000000000E+10  -9.378983866318832E-1    1.205370208028210E-1
 1.104000000000000E+10  -9.184069167697393E-1    2.137418788678882E-1
 1.105000000000000E+10  -8.893979435655349E-1    3.062599111551503E-1
 1.106000000000000E+10  -8.507309024065307E-1    3.970249408528210E-1
 1.107000000000000E+10  -8.024116796193193E-1    4.848335195306715E-1
 1.108000000000000E+10  -7.450393565554205E-1    5.682637299559562E-1
 1.109000000000000E+10  -6.790445029109154E-1    6.452426096572932E-1
 1.110000000000000E+10  -6.049256919903503E-1    7.146992877483760E-1
 1.111000000000000E+10  -5.239034116404382E-1    7.748623969736737E-1
 1.112000000000000E+10  -4.372144732419553E-1    8.255354496911828E-1
 1.113000000000000E+10  -3.457276542090597E-1    8.662500212166856E-1
 1.114000000000000E+10  -2.502296070112725E-1    8.970563974079727E-1
 1.115000000000000E+10  -1.515440152065613E-1    9.178233877753852E-1
 1.116000000000000E+10  -5.073833817109668E-2    9.287344117079770E-1
 1.117000000000000E+10   5.142145206217699E-2    9.292988941260428E-1
 1.118000000000000E+10   1.531966026543124E-1    9.188022941714081E-1
 1.119000000000000E+10   2.530601405082194E-1    8.976441226002541E-1
 1.120000000000000E+10   3.493162503606396E-1    8.658803264655918E-1
 1.121000000000000E+10   4.405782898472947E-1    8.237933543650833E-1
 1.122000000000000E+10   5.260152174997712E-1    7.720307803533730E-1
 1.123000000000000E+10   6.048076974430376E-1    7.115241939826710E-1
 1.124000000000000E+10   6.766960263799696E-1    6.433759555524616E-1
 1.125000000000000E+10   7.412831041006689E-1    5.680691210016540E-1
 1.126000000000000E+10   7.979473501341030E-1    4.867389405044861E-1
 1.127000000000000E+10   8.465480577429756E-1    3.999929724803655E-1
 1.128000000000000E+10   8.860772053194788E-1    3.089507245300132E-1
 1.129000000000000E+10   9.158239994329312E-1    2.145173833722120E-1
 1.130000000000000E+10   9.353801183467854E-1    1.181324834599213E-1
 1.131000000000000E+10   9.444939290349874E-1    2.072667002629204E-2
 1.132000000000000E+10   9.429043894314428E-1   -7.609069193687931E-2
 1.133000000000000E+10   9.310420547489604E-1   -1.716199975102093E-1
 1.134000000000000E+10   9.095651321568536E-1   -2.650339171372298E-1
 1.135000000000000E+10   8.791421851821120E-1   -3.558947979303932E-1
 1.136000000000000E+10   8.396626827535983E-1   -4.435358628656659E-1
 1.137000000000000E+10   7.918303939945207E-1   -5.274364724528495E-1
 1.138000000000000E+10   7.357773200299467E-1   -6.067462600025901E-1
 1.139000000000000E+10   6.716752017094056E-1   -6.801216342897796E-1
 1.140000000000000E+10   6.000285383382495E-1   -7.465617664315300E-1
 1.141000000000000E+10   5.215168250422515E-1   -8.052372444191893E-1
 1.142000000000000E+10   4.370377059365372E-1   -8.548948933906302E-1
 1.143000000000000E+10   3.478016280434828E-1   -8.954502706007494E-1
 1.144000000000000E+10   2.549134478799183E-1   -9.265853749789440E-1
 1.145000000000000E+10   1.593338608817643E-1   -9.481291536752223E-1
 1.146000000000000E+10   6.121596184440418E-2   -9.603892024340707E-1
 1.147000000000000E+10  -3.810845409396461E-2   -9.629014758454885E-1
 1.148000000000000E+10  -1.378714495731167E-1   -9.547956458799054E-1
 1.149000000000000E+10  -2.370499606077789E-1   -9.366046448877327E-1
 1.150000000000000E+10  -3.345679614047624E-1   -9.070495517992275E-1
 1.151000000000000E+10  -4.286847831105314E-1   -8.665904184936336E-1
 1.152000000000000E+10  -5.182131625051403E-1   -8.159367436082734E-1
 1.153000000000000E+10  -6.023390122011006E-1   -7.553251459310684E-1
 1.154000000000000E+10  -6.794630254820312E-1   -6.854724275358349E-1
 1.155000000000000E+10  -7.489654415404922E-1   -6.073557364664872E-1
 1.156000000000000E+10  -8.098195564114132E-1   -5.222251265917869E-1
 1.157000000000000E+10  -8.618467061569490E-1   -4.306589678536940E-1
 1.158000000000000E+10  -9.041396454922844E-1   -3.335234071263571E-1
 1.159000000000000E+10  -9.354780969564999E-1   -2.317187926772402E-1
 1.160000000000000E+10  -9.550714880023130E-1   -1.256613382930259E-1
 1.161000000000000E+10  -9.624038047255095E-1   -1.736350055017780E-2
 1.162000000000000E+10  -9.565701265355060E-1    9.229835279368506E-2
 1.163000000000000E+10  -9.377996818663418E-1    2.007846226926516E-1
 1.164000000000000E+10  -9.066106432449436E-1    3.065299933341037E-1
 1.165000000000000E+10  -8.640882525083527E-1    4.082774258714484E-1
 1.166000000000000E+10  -8.110298109285812E-1    5.038700178344975E-1
 1.167000000000000E+10  -7.481874834782751E-1    5.928651456317576E-1
 1.168000000000000E+10  -6.762165157944694E-1    6.737694063710767E-1
 1.169000000000000E+10  -5.956102740098872E-1    7.456244975215905E-1
 1.170000000000000E+10  -5.071275582074872E-1    8.075516667807763E-1
 1.171000000000000E+10  -4.121190660600032E-1    8.583618039034254E-1
 1.172000000000000E+10  -3.117450549159932E-1    8.976526173362231E-1
 1.173000000000000E+10  -2.073964100113437E-1    9.250464279779346E-1
 1.174000000000000E+10  -1.006693142862282E-1    9.404524174954966E-1
 1.175000000000000E+10   6.363460707784908E-3    9.441642434954003E-1
 1.176000000000000E+10   1.119834422139795E-1    9.363754136037755E-1
 1.177000000000000E+10   2.145400321865255E-1    9.178847470172558E-1
 1.178000000000000E+10   3.128509941610823E-1    8.892208984325914E-1
 1.179000000000000E+10   4.058163820972842E-1    8.508776357758510E-1
 1.180000000000000E+10   4.927364724984969E-1    8.032908858021403E-1
 1.181000000000000E+10   5.728887562564088E-1    7.469885412638337E-1
 1.182000000000000E+10   6.460146176794407E-1    6.825363545523773E-1
 1.183000000000000E+10   7.113409526076532E-1    6.110468115704621E-1
 1.184000000000000E+10   7.688405633431009E-1    5.337926099690126E-1
 1.185000000000000E+10   8.180962082918404E-1    4.521904129477787E-1
 1.186000000000000E+10   8.588628103477289E-1    3.677092759101767E-1
 1.187000000000000E+10   8.913164424869113E-1    2.811313219397708E-1
 1.188000000000000E+10   9.151927273613076E-1    1.934469437036508E-1
 1.189000000000000E+10   9.302340329699295E-1    1.053461380197837E-1
 1.190000000000000E+10   9.364533112648167E-1    1.721062420198102E-2
 1.191000000000000E+10   9.335224381045486E-1   -7.011191900113362E-2
 1.192000000000000E+10   9.221009886239242E-1   -1.563494098467530E-1
 1.193000000000000E+10   9.023402239304537E-1   -2.409736456745746E-1
 1.194000000000000E+10   8.748398681057242E-1   -3.232168917952415E-1
 1.195000000000000E+10   8.405676222720061E-1   -4.025198494010188E-1
 1.196000000000000E+10   8.002669003486631E-1   -4.781360559624158E-1
 1.197000000000000E+10   7.548651312048948E-1   -5.493895738949577E-1
 1.198000000000000E+10   7.044654395832958E-1   -6.152239988864503E-1
 1.199000000000000E+10   6.498259369928089E-1   -6.756662074038137E-1
 1.200000000000000E+10   5.911009237488195E-1   -7.302149689272407E-1
 1.201000000000000E+10   5.277530723477167E-1   -7.783718419055596E-1
 1.202000000000000E+10   4.602462774269804E-1   -8.206154695337917E-1
 1.203000000000000E+10   3.884786225113172E-1   -8.564771451801609E-1
 1.204000000000000E+10   3.127203342313970E-1   -8.858765913362822E-1
 1.205000000000000E+10   2.335421940427096E-1   -9.090552432085135E-1
 1.206000000000000E+10   1.518113400331926E-1   -9.260386986534780E-1
 1.207000000000000E+10   6.878488523515175E-2   -9.366172474809137E-1
 1.208000000000000E+10  -1.473813226072417E-2   -9.406306635921031E-1
 1.209000000000000E+10  -9.770465142951267E-2   -9.380125873935307E-1
 1.210000000000000E+10  -1.793289303858576E-1   -9.285388534053767E-1
 1.211000000000000E+10  -2.595085879577483E-1   -9.114995314964769E-1
 1.212000000000000E+10  -3.376469832685849E-1   -8.869521772241183E-1
 1.213000000000000E+10  -4.138126116055583E-1   -8.546124849001205E-1
 1.214000000000000E+10  -4.876666095719864E-1   -8.143132942141910E-1
 1.215000000000000E+10  -5.588988535913780E-1   -7.665937412396453E-1
 1.216000000000000E+10  -6.270262838045536E-1   -7.118662645800702E-1
 1.217000000000000E+10  -6.912555142459103E-1   -6.506359047410498E-1
 1.218000000000000E+10  -7.507046745580801E-1   -5.834759981968225E-1
 1.219000000000000E+10  -8.042098746378179E-1   -5.110149491570635E-1
 1.220000000000000E+10  -8.510637252557106E-1   -4.337414362630584E-1
 1.221000000000000E+10  -8.899610862717453E-1   -3.522080718747374E-1
 1.222000000000000E+10  -9.203862789318000E-1   -2.661049054245695E-1
 1.223000000000000E+10  -9.417134137953352E-1   -1.762909068631788E-1
 1.224000000000000E+10  -9.540707006303965E-1   -8.271067827540009E-2
 1.225000000000000E+10  -9.564974109590701E-1    1.412327519930714E-2
 1.226000000000000E+10  -9.489205084190537E-1    1.133015182529944E-1
 1.227000000000000E+10  -9.312236033993847E-1    2.127471168016349E-1
 1.228000000000000E+10  -9.036514751957572E-1    3.113595627591970E-1
 1.229000000000000E+10  -8.660941358554544E-1    4.074647657650800E-1
 1.230000000000000E+10  -8.187693343969387E-1    4.990011838433887E-1
 1.231000000000000E+10  -7.612896520585338E-1    5.848652172400259E-1
 1.232000000000000E+10  -6.939616221243810E-1    6.639457516714646E-1
 1.233000000000000E+10  -6.174090438864913E-1    7.347139754280193E-1
 1.234000000000000E+10  -5.310347860933643E-1    7.971113787964668E-1
 1.235000000000000E+10  -4.358457385485423E-1    8.496070393391677E-1
 1.236000000000000E+10  -3.329156946372449E-1    8.920018506802444E-1
 1.237000000000000E+10  -2.236712030870234E-1    9.225708825552281E-1
 1.238000000000000E+10  -1.107301077610535E-1    9.412935669222462E-1
 1.239000000000000E+10   4.024050118346595E-3    9.466521472166547E-1
 1.240000000000000E+10   1.177681382757780E-1    9.391729896237890E-1
 1.241000000000000E+10   2.283104652498551E-1    9.180803557555880E-1
 1.242000000000000E+10   3.342632625562358E-1    8.833730707759119E-1
 1.243000000000000E+10   4.341058801938493E-1    8.354806448499599E-1
 1.244000000000000E+10   5.271897789500679E-1    7.753353568953754E-1
 1.245000000000000E+10   6.121813802707249E-1    7.036381619770762E-1
 1.246000000000000E+10   6.884556062475700E-1    6.214511412544004E-1
 1.247000000000000E+10   7.548571608981507E-1    5.309930744338571E-1
 1.248000000000000E+10   8.105336819445177E-1    4.338728066846356E-1
 1.249000000000000E+10   8.544565030936232E-1    3.322394940252994E-1
 1.250000000000000E+10   8.858597068305396E-1    2.286553542037202E-1
