#  HZ   S   RI   R     50.00 
! Rohde & Schwarz Vector Network Analyzer 
! Rohde-Schwarz,ZNA43-4Port,1332450044101932,2.92
! Created: UTC 6/1/2026, 11:34:58 AM
! freq[Hz]                re:S11                  im:S11
 8.000000000000000E9    -2.631695573941647E-1    9.383296975876171E-1
 8.010000000000000E9    -1.783294647771624E-1    9.601027965933162E-1
 8.020000000000000E9    -9.453810199240448E-2    9.736799186327491E-1
 8.030000000000000E9    -1.189492779544707E-2    9.792971098354771E-1
 8.040000000000000E9     7.019156283748343E-2    9.771816601220696E-1
 8.050000000000000E9     1.514531475297156E-1    9.676676387012696E-1
 8.060000000000000E9     2.313271935390243E-1    9.506661261565730E-1
 8.070000000000000E9     3.098342721931250E-1    9.271680621634035E-1
 8.080000000000000E9     3.862506256718996E-1    8.976801207114978E-1
 8.090000000000000E9     4.598495986316637E-1    8.623616654284353E-1
 8.100000000000000E9     5.305424595626002E-1    8.214535254367042E-1
 8.110000000000000E9     5.975756391783803E-1    7.753949824122847E-1
 8.120000000000000E9     6.603281512840304E-1    7.241018519212985E-1
 8.130000000000000E9     7.185554915823782E-1    6.668673756803764E-1
 8.140000000000000E9     7.720588633433465E-1    6.038922663693579E-1
 8.150000000000000E9     8.204914408236683E-1    5.345426618131545E-1
 8.160000000000000E9     8.632911778078769E-1    4.594670417870259E-1
 8.170000000000000E9     9.001543786656828E-1    3.785400610670142E-1
 8.180000000000000E9     9.305101889324588E-1    2.926540714055021E-1
 8.190000000000000E9     9.539623604298183E-1    2.023952295599216E-1
 8.200000000000000E9     9.692037618937990E-1    1.087589659988333E-1
 8.210000000000000E9     9.760208165518073E-1    1.210934191587739E-2
 8.220000000000000E9     9.727839692739957E-1   -8.680003690162358E-2
 8.230000000000000E9     9.587850771609552E-1   -1.871512950184837E-1
 8.240000000000000E9     9.324032486943853E-1   -2.884705186890664E-1
 8.250000000000000E9     8.932997202010560E-1   -3.899157799052316E-1
 8.260000000000000E9     8.401207897774642E-1   -4.901478821396680E-1
 8.270000000000000E9     7.725227283500400E-1   -5.873931867049600E-1
 8.280000000000000E9     6.905270365970602E-1   -6.793440911206234E-1
 8.290000000000000E9     5.942503932915761E-1   -7.634648477740408E-1
 8.300000000000000E9     4.854695064407444E-1   -8.365818371884410E-1
 8.310000000000000E9     3.648952880043490E-1   -8.963110345483656E-1
 8.320000000000000E9     2.341717801907816E-1   -9.395633779843172E-1
 8.330000000000000E9     9.515647740594625E-2   -9.637344591635102E-1
 8.340000000000000E9    -5.008359203237948E-2   -9.663077243179008E-1
 8.350000000000000E9    -1.982684723653407E-1   -9.451701778690662E-1
 8.360000000000000E9    -3.456346453087621E-1   -8.990568863277278E-1
 8.370000000000000E9    -4.872701162036406E-1   -8.279342425742370E-1
 8.380000000000000E9    -6.182649964995202E-1   -7.332280164400001E-1
 8.390000000000000E9    -7.333782010518164E-1   -6.175795888164304E-1
 8.400000000000000E9    -8.281741367134567E-1   -4.847339666052993E-1
 8.410000000000000E9    -8.992978099209511E-1   -3.390072182737716E-1
 8.420000000000000E9    -9.442586652338438E-1   -1.851598248996085E-1
 8.430000000000000E9    -9.624865933149144E-1   -2.779296029502651E-2
 8.440000000000000E9    -9.539626028431294E-1    1.286591202483777E-1
 8.450000000000000E9    -9.198657995928227E-1    2.802897140823730E-1
 8.460000000000000E9    -8.623026811474950E-1    4.232701618795934E-1
 8.470000000000000E9    -7.845240256415156E-1    5.538332015905990E-1
 8.480000000000000E9    -6.898734381751840E-1    6.690230898685290E-1
 8.490000000000000E9    -5.824531452977421E-1    7.664821024409717E-1
 8.500000000000000E9    -4.664757614077643E-1    8.446499602148264E-1
 8.510000000000000E9    -3.447235113845700E-1    9.038754801569283E-1
 8.520000000000000E9    -2.202544459017583E-1    9.440467375536699E-1
 8.530000000000000E9    -9.469717251512404E-2    9.655786458660190E-1
 8.540000000000000E9     3.016673509524186E-2    9.693499978034479E-1
 8.550000000000000E9     1.526311720498054E-1    9.566541047169604E-1
 8.560000000000000E9     2.717795080425549E-1    9.287155081117132E-1
 8.570000000000000E9     3.856086146965492E-1    8.868160881286367E-1
 8.580000000000000E9     4.925566631587709E-1    8.326801773617145E-1
 8.590000000000000E9     5.909026562777829E-1    7.677138997890861E-1
 8.600000000000000E9     6.795494491039779E-1    6.932424716486922E-1
 8.610000000000000E9     7.570349920188000E-1    6.108662727493149E-1
 8.620000000000000E9     8.229280406988408E-1    5.213657021875788E-1
 8.630000000000000E9     8.770226862899684E-1    4.253930918765180E-1
 8.640000000000000E9     9.185646541705247E-1    3.238045747721204E-1
 8.650000000000000E9     9.477047191407570E-1    2.175073437926550E-1
 8.660000000000000E9     9.646834841823075E-1    1.076474893392560E-1
 8.670000000000000E9     9.692943447132679E-1   -4.493506408640732E-3
 8.680000000000000E9     9.615483612343748E-1   -1.170499719576523E-1
 8.690000000000000E9     9.417674158636958E-1   -2.283200610199747E-1
 8.700000000000000E9     9.100302400525202E-1   -3.362893160664370E-1
 8.710000000000000E9     8.661073082783377E-1   -4.393127695104981E-1
 8.720000000000000E9     8.109677444819851E-1   -5.361563587542603E-1
 8.730000000000000E9     7.440462373103305E-1   -6.257445742851694E-1
 8.740000000000000E9     6.660541477392559E-1   -7.070022972222487E-1
 8.750000000000000E9     5.775351683219262E-1   -7.791768749690716E-1
 8.760000000000000E9     4.796185783477084E-1   -8.408904080884924E-1
 8.770000000000000E9     3.736621893082002E-1   -8.915066257574796E-1
 8.780000000000000E9     2.618248358331585E-1   -9.296824695587290E-1
 8.790000000000000E9     1.462817352988798E-1   -9.548972462445924E-1
 8.800000000000000E9     2.886561711742675E-2   -9.664308056493639E-1
 8.810000000000000E9    -8.805127802047967E-2   -9.639498531942856E-1
 8.820000000000000E9    -2.029127614711029E-1   -9.470448937396323E-1
 8.830000000000000E9    -3.142976382029912E-1   -9.159137464695420E-1
 8.840000000000000E9    -4.206954719476558E-1   -8.712403651580728E-1
 8.850000000000000E9    -5.210290812326530E-1   -8.136343346078933E-1
 8.860000000000000E9    -6.143110423333363E-1   -7.441821743960368E-1
 8.870000000000000E9    -6.989554189195079E-1   -6.639840738713096E-1
 8.880000000000000E9    -7.737354044049992E-1   -5.748285708384044E-1
 8.890000000000000E9    -8.373756941253049E-1   -4.790907180810399E-1
 8.900000000000000E9    -8.890360659910127E-1   -3.779993920752472E-1
 8.910000000000000E9    -9.278825663457811E-1   -2.740073746631264E-1
 8.920000000000000E9    -9.539020368155842E-1   -1.683731052227934E-1
 8.930000000000000E9    -9.670232130107717E-1   -6.225483212161825E-2
 8.940000000000000E9    -9.676687079937379E-1    4.349366986785224E-2
 8.950000000000000E9    -9.564165403171273E-1    1.476593225601651E-1
 8.960000000000000E9    -9.339820242108057E-1    2.494714658663290E-1
 8.970000000000000E9    -9.012601220362398E-1    3.480488344126911E-1
 8.980000000000000E9    -8.592212799395693E-1    4.420832401566694E-1
 8.990000000000000E9    -8.088642911756986E-1    5.304029699933529E-1
 9.000000000000000E9    -7.512162741135627E-1    6.118095116157728E-1
 9.010000000000000E9    -6.875091419613149E-1    6.854092099758288E-1
 9.020000000000000E9    -6.182645644053548E-1    7.505320520182275E-1
 9.030000000000000E9    -5.440944396475188E-1    8.071074142073849E-1
 9.040000000000000E9    -4.656722743930508E-1    8.550463471108646E-1
 9.050000000000000E9    -3.833139679300714E-1    8.945522632000882E-1
 9.060000000000000E9    -2.974326015478885E-1    9.257423942083600E-1
 9.070000000000000E9    -2.088989793778175E-1    9.488611429846527E-1
 9.080000000000000E9    -1.182226759686420E-1    9.642111417960963E-1
 9.090000000000000E9    -2.650150066804504E-2    9.715303162831641E-1
 9.100000000000000E9     6.515246957312099E-2    9.708181320481520E-1
 9.110000000000000E9     1.554848412348840E-1    9.619905489329751E-1
 9.120000000000000E9     2.437682300674974E-1    9.449607522950508E-1
 9.130000000000000E9     3.290472478366986E-1    9.198222811069366E-1
 9.140000000000000E9     4.110814253967822E-1    8.866673454837590E-1
 9.150000000000000E9     4.893246105857065E-1    8.456588229523091E-1
 9.160000000000000E9     5.641345443091975E-1    7.966414479294722E-1
 9.170000000000000E9     6.350713552957140E-1    7.399505998826964E-1
 9.180000000000000E9     7.020641551488142E-1    6.757233898000145E-1
 9.190000000000000E9     7.642417000378249E-1    6.041345646405791E-1
 9.200000000000000E9     8.205949602758201E-1    5.250798709141253E-1
 9.210000000000000E9     8.698660419225317E-1    4.396937500248965E-1
 9.220000000000000E9     9.106158367291903E-1    3.484830341597644E-1
 9.230000000000000E9     9.421940336456655E-1    2.516259337386129E-1
 9.240000000000000E9     9.628402697078233E-1    1.505099154572447E-1
 9.250000000000000E9     9.722254173980741E-1    4.551919712908196E-2
 9.260000000000000E9     9.696418958606786E-1   -6.241736155352677E-2
 9.270000000000000E9     9.542994446760801E-1   -1.725603795213321E-1
 9.280000000000000E9     9.255267836476975E-1   -2.839080410325117E-1
 9.290000000000000E9     8.823199244713840E-1   -3.950049458102763E-1
 9.300000000000000E9     8.237643693419782E-1   -5.038895720864326E-1
 9.310000000000000E9     7.493730429088096E-1   -6.075904807030831E-1
 9.320000000000000E9     6.587254027116468E-1   -7.031833037665378E-1
 9.330000000000000E9     5.527689554831779E-1   -7.873489633644712E-1
 9.340000000000000E9     4.325757197307648E-1   -8.566266703038213E-1
 9.350000000000000E9     3.005544912637463E-1   -9.080285605492443E-1
 9.360000000000000E9     1.591035995570637E-1   -9.394906482603104E-1
 9.370000000000000E9     1.144184233151117E-2   -9.491796200872469E-1
 9.380000000000000E9    -1.387841453526027E-1   -9.358782531717242E-1
 9.390000000000000E9    -2.875720892162881E-1   -8.985677049958380E-1
 9.400000000000000E9    -4.300962914501386E-1   -8.372745559396031E-1
 9.410000000000000E9    -5.616729819141965E-1   -7.534221648680390E-1
 9.420000000000000E9    -6.774562447398744E-1   -6.491937519145643E-1
 9.430000000000000E9    -7.736521623758271E-1   -5.283835706474641E-1
 9.440000000000000E9    -8.473210547954587E-1   -3.959162869847839E-1
 9.450000000000000E9    -8.979669753694919E-1   -2.565542975040267E-1
 9.460000000000000E9    -9.260248874035493E-1   -1.147885452263381E-1
 9.470000000000000E9    -9.322223481030939E-1    2.523900694921632E-2
 9.480000000000000E9    -9.186131658578454E-1    1.606656813830209E-1
 9.490000000000000E9    -8.874717678416326E-1    2.887525455809096E-1
 9.500000000000000E9    -8.399754291321959E-1    4.075493677195943E-1
 9.510000000000000E9    -7.797424602695296E-1    5.153701778577653E-1
 9.520000000000000E9    -7.084677800495149E-1    6.109538003284619E-1
 9.530000000000000E9    -6.284738646579636E-1    6.934213623719813E-1
 9.540000000000000E9    -5.423906886658868E-1    7.630239050535810E-1
 9.550000000000000E9    -4.525429223271145E-1    8.199454631020817E-1
 9.560000000000000E9    -3.611304342025318E-1    8.649812440176148E-1
 9.570000000000000E9    -2.693217722669298E-1    8.989233947185559E-1
 9.580000000000000E9    -1.782601773892176E-1    9.228977147012937E-1
 9.590000000000000E9    -8.859125136233570E-2    9.374310679303829E-1
 9.600000000000000E9    -9.561205286930183E-4    9.431390297079636E-1
 9.610000000000000E9     8.442210739370365E-2    9.406042745304762E-1
 9.620000000000000E9     1.670375804423870E-1    9.303095862650065E-1
 9.630000000000000E9     2.463530318128289E-1    9.126946099903898E-1
 9.640000000000000E9     3.222094290046376E-1    8.888147538035853E-1
 9.650000000000000E9     3.937296092012603E-1    8.592023714789792E-1
 9.660000000000000E9     4.611305401165966E-1    8.250766819357264E-1
 9.670000000000000E9     5.243123487489679E-1    7.870915410898793E-1
 9.680000000000000E9     5.831545407624911E-1    7.456657021378966E-1
 9.690000000000000E9     6.377001878085889E-1    7.012129650639050E-1
 9.700000000000000E9     6.879711482364885E-1    6.535899012127854E-1
 9.710000000000000E9     7.337950484785702E-1    6.032838963902184E-1
 9.720000000000000E9     7.752065641549846E-1    5.498569664289328E-1
 9.730000000000000E9     8.120699115066478E-1    4.937930883990129E-1
 9.740000000000000E9     8.444547417506703E-1    4.352837393626772E-1
 9.750000000000000E9     8.723537517523728E-1    3.746789476136176E-1
 9.760000000000000E9     8.959063222824699E-1    3.123987026888917E-1
 9.770000000000000E9     9.150851160924713E-1    2.491978482472825E-1
 9.780000000000000E9     9.303190970143456E-1    1.853742848230239E-1
 9.790000000000000E9     9.412656286477321E-1    1.211188071471821E-1
 9.800000000000000E9     9.480440270868473E-1    5.667170589490488E-2
 9.810000000000000E9     9.504668693603769E-1   -8.300518361382396E-3
 9.820000000000000E9     9.480763592853144E-1   -7.379163040040541E-2
 9.830000000000000E9     9.406441569502672E-1   -1.398916696515118E-1
 9.840000000000000E9     9.279029401776068E-1   -2.064179278313465E-1
 9.850000000000000E9     9.095547739673973E-1   -2.732430999241714E-1
 9.860000000000000E9     8.859673343815708E-1   -3.396498556851176E-1
 9.870000000000000E9     8.571836923142493E-1   -4.053040429364460E-1
 9.880000000000000E9     8.234269954612665E-1   -4.695738564277521E-1
 9.890000000000000E9     7.850087876919956E-1   -5.320740458247059E-1
 9.900000000000000E9     7.415751365451809E-1   -5.923269109462298E-1
 9.910000000000000E9     6.929321774593565E-1   -6.499632988516356E-1
 9.920000000000000E9     6.385065693347423E-1   -7.045098367621542E-1
 9.930000000000000E9     5.776156126680655E-1   -7.558103555722325E-1
 9.940000000000000E9     5.099414466420881E-1   -8.028197070154335E-1
 9.950000000000000E9     4.351227035336655E-1   -8.450902727690961E-1
 9.960000000000000E9     3.531049819914999E-1   -8.817064653482523E-1
 9.970000000000000E9     2.646951371589977E-1   -9.116213862971468E-1
 9.980000000000000E9     1.705045100563003E-1   -9.338873991259253E-1
 9.990000000000000E9     7.172687113825449E-2   -9.473672414064835E-1
 1.000000000000000E+10  -3.044705292103111E-2   -9.507122517572796E-1
 1.001000000000000E+10  -1.364121915118937E-1   -9.437273216147363E-1
 1.002000000000000E+10  -2.438543902850195E-1   -9.235846802623224E-1
 1.003000000000000E+10  -3.521866191513860E-1   -8.891864602195501E-1
 1.004000000000000E+10  -4.601983925637341E-1   -8.387953553381124E-1
 1.005000000000000E+10  -5.655412187758649E-1   -7.712147035867566E-1
 1.006000000000000E+10  -6.651450652769717E-1   -6.858561200183712E-1
 1.007000000000000E+10  -7.560082546311653E-1   -5.835812494196321E-1
 1.008000000000000E+10  -8.339744562222895E-1   -4.654652843918345E-1
 1.009000000000000E+10  -8.957140054473517E-1   -3.344294498236270E-1
 1.010000000000000E+10  -9.383957480676859E-1   -1.937413201916715E-1
 1.011000000000000E+10  -9.591897825444550E-1   -4.701139206321615E-2
 1.012000000000000E+10  -9.570273049727170E-1    1.024238674237150E-1
 1.013000000000000E+10  -9.303969515808598E-1    2.505681489466856E-1
 1.014000000000000E+10  -8.792523172506310E-1    3.932203292581188E-1
 1.015000000000000E+10  -8.050457852585728E-1    5.266160791347904E-1
 1.016000000000000E+10  -7.099961496778641E-1    6.467922349098200E-1
 1.017000000000000E+10  -5.981367758488368E-1    7.498079211288348E-1
 1.018000000000000E+10  -4.742415874756108E-1    8.335203846121607E-1
 1.019000000000000E+10  -3.432537837716278E-1    8.963909423840757E-1
 1.020000000000000E+10  -2.099226284639655E-1    9.379703661975979E-1
 1.021000000000000E+10  -7.777410634219920E-2    9.594709556782265E-1
 1.022000000000000E+10   5.053173859775154E-2    9.622753437594578E-1
 1.023000000000000E+10   1.736062656754536E-1    9.481630063364859E-1
 1.024000000000000E+10   2.903116990355856E-1    9.181326519351353E-1
 1.025000000000000E+10   3.997734583746097E-1    8.747965739353545E-1
 1.026000000000000E+10   5.009410462238890E-1    8.195682268059873E-1
 1.027000000000000E+10   5.930897148023677E-1    7.548541065925932E-1
 1.028000000000000E+10   6.750659790850213E-1    6.828711417403452E-1
 1.029000000000000E+10   7.462021107599173E-1    6.061757369568685E-1
 1.030000000000000E+10   8.065856489499604E-1    5.264352558515654E-1
 1.031000000000000E+10   8.559674037741200E-1    4.448516020713305E-1
 1.032000000000000E+10   8.952792032847277E-1    3.625762172767264E-1
 1.033000000000000E+10   9.246716750006506E-1    2.794679012113521E-1
 1.034000000000000E+10   9.450752594459726E-1    1.960291003905022E-1
 1.035000000000000E+10   9.570360250669634E-1    1.124137291422957E-1
 1.036000000000000E+10   9.615126082159186E-1    2.843331953375107E-2
 1.037000000000000E+10   9.589876051529000E-1   -5.522572444593331E-2
 1.038000000000000E+10   9.501778969078526E-1   -1.376587459327253E-1
 1.039000000000000E+10   9.355270648478803E-1   -2.177188107929980E-1
 1.040000000000000E+10   9.155476039376638E-1   -2.945681641018963E-1
 1.041000000000000E+10   8.906780917094110E-1   -3.674707568526007E-1
 1.042000000000000E+10   8.605742873876649E-1   -4.358689011461681E-1
 1.043000000000000E+10   8.257571066558627E-1   -4.997983299210405E-1
 1.044000000000000E+10   7.857126805911516E-1   -5.596613365036204E-1
 1.045000000000000E+10   7.408102852809012E-1   -6.156778657107420E-1
 1.046000000000000E+10   6.905012423879462E-1   -6.683037981316866E-1
 1.047000000000000E+10   6.355896641986188E-1   -7.176107548402718E-1
 1.048000000000000E+10   5.765584253911331E-1   -7.637042003580654E-1
 1.049000000000000E+10   5.139106081931810E-1   -8.058791208393185E-1
 1.050000000000000E+10   4.488316447386796E-1   -8.438016105716625E-1
 1.051000000000000E+10   3.820004139412081E-1   -8.769473416832350E-1
 1.052000000000000E+10   3.138880028002604E-1   -9.046059553984169E-1
 1.053000000000000E+10   2.448742324936618E-1   -9.264872032538066E-1
 1.054000000000000E+10   1.747332069663559E-1   -9.422866999227091E-1
 1.055000000000000E+10   1.031015470377990E-1   -9.518164472498101E-1
 1.056000000000000E+10   2.963258627723571E-2   -9.550260391102426E-1
 1.057000000000000E+10  -4.577199803902345E-2   -9.518718426021345E-1
 1.058000000000000E+10  -1.228395396757430E-1   -9.425149348035943E-1
 1.059000000000000E+10  -2.011320969480550E-1   -9.268326299158499E-1
 1.060000000000000E+10  -2.794751179998990E-1   -9.050949252290872E-1
 1.061000000000000E+10  -3.569900513291263E-1   -8.772741725248064E-1
 1.062000000000000E+10  -4.320491177732662E-1   -8.434250268442713E-1
 1.063000000000000E+10  -5.039649415046921E-1   -8.033476039604293E-1
 1.064000000000000E+10  -5.717226930884123E-1   -7.567427907175800E-1
 1.065000000000000E+10  -6.349206465826802E-1   -7.035893293283977E-1
 1.066000000000000E+10  -6.936430303049567E-1   -6.434019714081815E-1
 1.067000000000000E+10  -7.474606274946887E-1   -5.760393135966834E-1
 1.068000000000000E+10  -7.962234636999957E-1   -5.013460665641989E-1
 1.069000000000000E+10  -8.394630714709570E-1   -4.195464600601059E-1
 1.070000000000000E+10  -8.762315047146720E-1   -3.316550611237804E-1
 1.071000000000000E+10  -9.053968212613159E-1   -2.387289320993488E-1
 1.072000000000000E+10  -9.257907028824379E-1   -1.423814078659449E-1
 1.073000000000000E+10  -9.365048623240836E-1   -4.417593772484311E-2
 1.074000000000000E+10  -9.366306447341428E-1    5.476470467048525E-2
 1.075000000000000E+10  -9.258787601833274E-1    1.530601795149772E-1
 1.076000000000000E+10  -9.034048791044731E-1    2.502718443965281E-1
 1.077000000000000E+10  -8.695766608333577E-1    3.458522782873040E-1
 1.078000000000000E+10  -8.238821040259704E-1    4.395250195585182E-1
 1.079000000000000E+10  -7.666243049952777E-1    5.299017145470738E-1
 1.080000000000000E+10  -6.984614251079957E-1    6.157223967389642E-1
 1.081000000000000E+10  -6.200753496295127E-1    6.950373135223756E-1
 1.082000000000000E+10  -5.326308484686560E-1    7.662563383740986E-1
 1.083000000000000E+10  -4.379029478068930E-1    8.267059903502560E-1
 1.084000000000000E+10  -3.372229088454609E-1    8.755319144725012E-1
 1.085000000000000E+10  -2.322855495664039E-1    9.111399466111656E-1
 1.086000000000000E+10  -1.247068835055901E-1    9.332064724505191E-1
 1.087000000000000E+10  -1.512185409810683E-2    9.417731133457007E-1
 1.088000000000000E+10   9.553883650940374E-2    9.366429596770689E-1
 1.089000000000000E+10   2.059865052501047E-1    9.185366268784113E-1
 1.090000000000000E+10   3.149498736400946E-1    8.876415035973346E-1
 1.091000000000000E+10   4.204703822374859E-1    8.446913420946334E-1
 1.092000000000000E+10   5.205135810102155E-1    7.900525584235151E-1
 1.093000000000000E+10   6.125786444465476E-1    7.252103130303751E-1
 1.094000000000000E+10   6.953432577961132E-1    6.514450671249727E-1
 1.095000000000000E+10   7.669452826868315E-1    5.703771841794285E-1
 1.096000000000000E+10   8.274306984129993E-1    4.826893456651897E-1
 1.097000000000000E+10   8.765381436041380E-1    3.900719345024349E-1
 1.098000000000000E+10   9.143805420681772E-1    2.931332033556885E-1
 1.099000000000000E+10   9.415133588423110E-1    1.925398735288038E-1
 1.100000000000000E+10   9.578328145565527E-1    8.936269101228389E-2
 1.101000000000000E+10   9.634863404647782E-1   -1.509205759809940E-2
 1.102000000000000E+10   9.579891438330190E-1   -1.195651658676707E-1
 1.103000000000000E+10   9.420171193979917E-1   -2.220012639135402E-1
 1.104000000000000E+10   9.154677114683085E-1   -3.208647221398860E-1
 1.105000000000000E+10   8.791278503750405E-1   -4.141946651885171E-1
 1.106000000000000E+10   8.341053871871975E-1   -5.015420418286972E-1
 1.107000000000000E+10   7.809173466463061E-1   -5.821483688246271E-1
 1.108000000000000E+10   7.200423523597397E-1   -6.559780281964085E-1
 1.109000000000000E+10   6.524553734147041E-1   -7.232227611982924E-1
 1.110000000000000E+10   5.787488280303789E-1   -7.836606257153533E-1
 1.111000000000000E+10   4.994936136404829E-1   -8.373251811595132E-1
 1.112000000000000E+10   4.150708500421587E-1   -8.832515230996103E-1
 1.113000000000000E+10   3.265830250161271E-1   -9.208756789526936E-1
 1.114000000000000E+10   2.347563240645755E-1   -9.495344084742555E-1
 1.115000000000000E+10   1.413228943706726E-1   -9.684171583076993E-1
 1.116000000000000E+10   4.679745129719313E-2   -9.773946466451329E-1
 1.117000000000000E+10  -4.754204597301014E-2   -9.763438015399515E-1
 1.118000000000000E+10  -1.407841448900791E-1   -9.661891060371486E-1
 1.119000000000000E+10  -2.324021687464818E-1   -9.469646187746881E-1
 1.120000000000000E+10  -3.224755909681238E-1   -9.190381564773502E-1
 1.121000000000000E+10  -4.102333199827807E-1   -8.825940172497093E-1
 1.122000000000000E+10  -4.946217662473858E-1   -8.381535320365576E-1
 1.123000000000000E+10  -5.748073465844034E-1   -7.854197332481502E-1
 1.124000000000000E+10  -6.494176982872432E-1   -7.245780130904935E-1
 1.125000000000000E+10  -7.174210572251030E-1   -6.568233816008626E-1
 1.126000000000000E+10  -7.776137680875287E-1   -5.822938790250706E-1
 1.127000000000000E+10  -8.294058719558226E-1   -5.020976376723008E-1
 1.128000000000000E+10  -8.726821571122340E-1   -4.169698888756692E-1
 1.129000000000000E+10  -9.071634339467922E-1   -3.279935878160095E-1
 1.130000000000000E+10  -9.327395870275500E-1   -2.354240611570101E-1
 1.131000000000000E+10  -9.491999961930763E-1   -1.405092373740438E-1
 1.132000000000000E+10  -9.568372830662073E-1   -4.366586600502191E-2
 1.133000000000000E+10  -9.550202557043499E-1    5.381020197748729E-2
 1.134000000000000E+10  -9.432753333587519E-1    1.508217466550313E-1
 1.135000000000000E+10  -9.216626775905262E-1    2.462707844596179E-1
 1.136000000000000E+10  -8.900299942928430E-1    3.386098925165535E-1
 1.137000000000000E+10  -8.489377586089069E-1    4.265307957874294E-1
 1.138000000000000E+10  -7.989604088886827E-1    5.092816037823101E-1
 1.139000000000000E+10  -7.411867675091870E-1    5.861143943905935E-1
 1.140000000000000E+10  -6.762981067142544E-1    6.566201378823103E-1
 1.141000000000000E+10  -6.052379015198487E-1    7.203066952038242E-1
 1.142000000000000E+10  -5.285434388711432E-1    7.769129646235017E-1
 1.143000000000000E+10  -4.468826735477779E-1    8.257143123849833E-1
 1.144000000000000E+10  -3.607773583155632E-1    8.663737689240714E-1
 1.145000000000000E+10  -2.711782014353442E-1    8.979732800925441E-1
 1.146000000000000E+10  -1.793490593809766E-1    9.198278198709056E-1
 1.147000000000000E+10  -8.619946461523854E-2    9.320366097336126E-1
 1.148000000000000E+10   7.116117735845882E-3    9.347614238123154E-1
 1.149000000000000E+10   9.983008605930975E-2    9.281238224015513E-1
 1.150000000000000E+10   1.907196364828795E-1    9.129646807211478E-1
 1.151000000000000E+10   2.793497899685526E-1    8.896159588164662E-1
 1.152000000000000E+10   3.648654383105339E-1    8.583095819567477E-1
 1.153000000000000E+10   4.468522760394926E-1    8.193792005863446E-1
 1.154000000000000E+10   5.244888042222797E-1    7.732459619828981E-1
 1.155000000000000E+10   5.969772379505724E-1    7.201092584250153E-1
 1.156000000000000E+10   6.640400367108458E-1    6.600690733793193E-1
 1.157000000000000E+10   7.242408398972899E-1    5.938478442917645E-1
 1.158000000000000E+10   7.774115279532042E-1    5.225773104884128E-1
 1.159000000000000E+10   8.231270871035344E-1    4.467631177643306E-1
 1.160000000000000E+10   8.614596071919198E-1    3.679950059127929E-1
 1.161000000000000E+10   8.921619995165254E-1    2.870116139517345E-1
 1.162000000000000E+10   9.157212069921139E-1    2.044671436836058E-1
 1.163000000000000E+10   9.319604369499759E-1    1.208955452812056E-1
 1.164000000000000E+10   9.406454760292263E-1    3.682208790907016E-2
 1.165000000000000E+10   9.415539986067410E-1   -4.733397264545054E-2
 1.166000000000000E+10   9.344404049829739E-1   -1.312158614044140E-1
 1.167000000000000E+10   9.190126736240090E-1   -2.140637644499573E-1
 1.168000000000000E+10   8.955964410684967E-1   -2.953437251812812E-1
 1.169000000000000E+10   8.649113456860156E-1   -3.744449668222286E-1
 1.170000000000000E+10   8.275063468931705E-1   -4.502294670440558E-1
 1.171000000000000E+10   7.840142048852832E-1   -5.228418028513668E-1
 1.172000000000000E+10   7.349893126325648E-1   -5.909920606741575E-1
 1.173000000000000E+10   6.812115285816910E-1   -6.543675066375113E-1
 1.174000000000000E+10   6.228102479078725E-1   -7.125063167153208E-1
 1.175000000000000E+10   5.597503293318898E-1   -7.649007926578781E-1
 1.176000000000000E+10   4.924198261298958E-1   -8.111354076976656E-1
 1.177000000000000E+10   4.208014795144079E-1   -8.510575149310350E-1
 1.178000000000000E+10   3.452229788762222E-1   -8.843831862682144E-1
 1.179000000000000E+10   2.657340871811155E-1   -9.106317740933660E-1
 1.180000000000000E+10   1.833109716879743E-1   -9.300782257940184E-1
 1.181000000000000E+10   9.849386466932658E-2   -9.425166886593008E-1
 1.182000000000000E+10   1.260890732098458E-2   -9.476979268574544E-1
 1.183000000000000E+10  -7.365091978136862E-2   -9.461989054369150E-1
 1.184000000000000E+10  -1.598459400496773E-1   -9.370122621470419E-1
 1.185000000000000E+10  -2.448293252691744E-1   -9.201079702467517E-1
 1.186000000000000E+10  -3.284572628303312E-1   -8.954138132320875E-1
 1.187000000000000E+10  -4.098892266499677E-1   -8.622529042465397E-1
 1.188000000000000E+10  -4.884903940440161E-1   -8.206580071977168E-1
 1.189000000000000E+10  -5.635144272074658E-1   -7.705378769140343E-1
 1.190000000000000E+10  -6.342316036230990E-1   -7.127718492257996E-1
 1.191000000000000E+10  -7.002917908719757E-1   -6.477914377470751E-1
 1.192000000000000E+10  -7.609074426011544E-1   -5.759066839733371E-1
 1.193000000000000E+10  -8.147590383038277E-1   -4.980343409504576E-1
 1.194000000000000E+10  -8.616377746203856E-1   -4.152428864486028E-1
 1.195000000000000E+10  -8.999590455187936E-1   -3.277647690221411E-1
 1.196000000000000E+10  -9.295176560612307E-1   -2.359187957113744E-1
 1.197000000000000E+10  -9.485194067694053E-1   -1.399973558133697E-1
 1.198000000000000E+10  -9.575500427357694E-1   -4.109053999099224E-2
 1.199000000000000E+10  -9.549679274764366E-1    6.015856814210972E-2
 1.200000000000000E+10  -9.411434243370487E-1    1.628706025148348E-1
 1.201000000000000E+10  -9.160070220300962E-1    2.650735118488368E-1
 1.202000000000000E+10  -8.793988137253745E-1    3.658104216115375E-1
 1.203000000000000E+10  -8.322193008392295E-1    4.626265402838178E-1
 1.204000000000000E+10  -7.752374127682244E-1    5.537936959959695E-1
 1.205000000000000E+10  -7.088630933039245E-1    6.375794256046399E-1
 1.206000000000000E+10  -6.336122369728153E-1    7.128391456165508E-1
 1.207000000000000E+10  -5.501424249001198E-1    7.787363439709892E-1
 1.208000000000000E+10  -4.587395459490136E-1    8.342375412494494E-1
 1.209000000000000E+10  -3.603388881251524E-1    8.785382350985702E-1
 1.210000000000000E+10  -2.564055109323964E-1    9.111295792248832E-1
 1.211000000000000E+10  -1.484772045251037E-1    9.316018864731185E-1
 1.212000000000000E+10  -3.825110302055306E-2    9.402086499583464E-1
 1.213000000000000E+10   7.166784713868993E-2    9.366872923769595E-1
 1.214000000000000E+10   1.794634787476955E-1    9.217426495272302E-1
 1.215000000000000E+10   2.836677333557996E-1    8.949178539767659E-1
 1.216000000000000E+10   3.824651761941167E-1    8.570047088817419E-1
 1.217000000000000E+10   4.746970346840079E-1    8.083100137087825E-1
 1.218000000000000E+10   5.596467424822031E-1    7.495428360751278E-1
 1.219000000000000E+10   6.365253801816045E-1    6.813518372485823E-1
 1.220000000000000E+10   7.050969512653474E-1    6.048425545549488E-1
 1.221000000000000E+10   7.648798782310091E-1    5.214757301479386E-1
 1.222000000000000E+10   8.153852265991871E-1    4.328636548077190E-1
 1.223000000000000E+10   8.566067415594951E-1    3.407833143911599E-1
 1.224000000000000E+10   8.878551681027833E-1    2.467314220064279E-1
 1.225000000000000E+10   9.092278362372436E-1    1.525384293314790E-1
 1.226000000000000E+10   9.203705142015244E-1    5.945551540001164E-2
 1.227000000000000E+10   9.217553569242530E-1   -3.242035480903822E-2
 1.228000000000000E+10   9.131383034440381E-1   -1.222159250162730E-1
 1.229000000000000E+10   8.949639056835346E-1   -2.097809695121761E-1
 1.230000000000000E+10   8.679586408575776E-1   -2.950392415202230E-1
 1.231000000000000E+10   8.326731478092236E-1   -3.774343480468365E-1
 1.232000000000000E+10   7.899341842024433E-1   -4.559265511643231E-1
 1.233000000000000E+10   7.406886454987153E-1   -5.301967600351980E-1
 1.234000000000000E+10   6.863647927078725E-1   -5.988651516243764E-1
 1.235000000000000E+10   6.276937954988451E-1   -6.615051804436730E-1
 1.236000000000000E+10   5.654936710739905E-1   -7.168606740939683E-1
 1.237000000000000E+10   5.005047506739677E-1   -7.651997431173161E-1
 1.238000000000000E+10   4.324920333176352E-1   -8.058008115763958E-1
 1.239000000000000E+10   3.618788268891630E-1   -8.393892312893192E-1
 1.240000000000000E+10   2.886434451081604E-1   -8.657465724784061E-1
 1.241000000000000E+10   2.127542515156551E-1   -8.854883458275867E-1
 1.242000000000000E+10   1.346428725913802E-1   -8.990498225712537E-1
 1.243000000000000E+10   5.542741845929432E-2   -9.066851316679230E-1
 1.244000000000000E+10  -2.389198997744450E-2   -9.082273410244799E-1
 1.245000000000000E+10  -1.023125947156807E-1   -9.039285134747760E-1
 1.246000000000000E+10  -1.791005049638620E-1   -8.939888171684761E-1
 1.247000000000000E+10  -2.530686508649529E-1   -8.778718953310090E-1
 1.248000000000000E+10  -3.239151643856088E-1   -8.559576203690150E-1
 1.249000000000000E+10  -3.918811018535109E-1   -8.278951344271189E-1
 1.250000000000000E+10  -4.568289281929691E-1   -7.937954970500568E-1
