#  HZ   S   RI   R     50.00 
! Rohde & Schwarz Vector Network Analyzer 
! Rohde-Schwarz,ZNA43-4Port,1332450044101932,2.92
! Created: UTC 6/1/2026, 11:34:12 AM
! freq[Hz]                re:S11                  im:S11
 8.000000000000000E9     8.318730923333290E-1    4.210461016277988E-1
 8.010000000000000E9     8.728429773971811E-1    3.171865517266066E-1
 8.020000000000000E9     9.013643594832997E-1    2.023803302396480E-1
 8.030000000000000E9     9.147156835014184E-1    7.705508805870095E-2
 8.040000000000000E9     9.095537144687784E-1   -5.731932327102024E-2
 8.050000000000000E9     8.828423838480968E-1   -1.978167392422907E-1
 8.060000000000000E9     8.312814626594325E-1   -3.404792601897204E-1
 8.070000000000000E9     7.521391781805343E-1   -4.799241305772798E-1
 8.080000000000000E9     6.434266157525923E-1   -6.092743175961246E-1
 8.090000000000000E9     5.050294012320272E-1   -7.204928955204117E-1
 8.100000000000000E9     3.385901883910408E-1   -8.045066382680844E-1
 8.110000000000000E9     1.494136927045676E-1   -8.525263312935883E-1
 8.120000000000000E9    -5.334512207381143E-2   -8.572250032659421E-1
 8.130000000000000E9    -2.570689212311199E-1   -8.143645471215233E-1
 8.140000000000000E9    -4.477801166453078E-1   -7.248279294325672E-1
 8.150000000000000E9    -6.122913640980789E-1   -5.945020685673131E-1
 8.160000000000000E9    -7.402425528309484E-1   -4.328750842707434E-1
 8.170000000000000E9    -8.256696964947109E-1   -2.521608532510241E-1
 8.180000000000000E9    -8.671395349954539E-1   -6.421427470232621E-2
 8.190000000000000E9    -8.669893485265564E-1    1.201697098120417E-1
 8.200000000000000E9    -8.304198893644551E-1    2.928539024675315E-1
 8.210000000000000E9    -7.641999592077989E-1    4.476020493027268E-1
 8.220000000000000E9    -6.755936840485012E-1    5.812053257129622E-1
 8.230000000000000E9    -5.714277394486854E-1    6.918943991550229E-1
 8.240000000000000E9    -4.575122299430319E-1    7.798635865040531E-1
 8.250000000000000E9    -3.390263830064372E-1    8.456587053826456E-1
 8.260000000000000E9    -2.191419094875502E-1    8.909340798589467E-1
 8.270000000000000E9    -1.000891735757492E-1    9.171374183886621E-1
 8.280000000000000E9     1.638589611053936E-2    9.262622905607808E-1
 8.290000000000000E9     1.296940508049175E-1    9.198278702730857E-1
 8.300000000000000E9     2.386816383687674E-1    8.991674703899990E-1
 8.310000000000000E9     3.423108044966723E-1    8.660636523952171E-1
 8.320000000000000E9     4.397931199468731E-1    8.221880956244503E-1
 8.330000000000000E9     5.301541514937320E-1    7.691156440448135E-1
 8.340000000000000E9     6.126839797520789E-1    7.082930705431306E-1
 8.350000000000000E9     6.865636828546705E-1    6.407826260515266E-1
 8.360000000000000E9     7.515572731124188E-1    5.674315419714374E-1
 8.370000000000000E9     8.073959305603470E-1    4.885595041341701E-1
 8.380000000000000E9     8.535910273517384E-1    4.046479342239048E-1
 8.390000000000000E9     8.901676302801151E-1    3.159547644852559E-1
 8.400000000000000E9     9.169790887972471E-1    2.227077704189707E-1
 8.410000000000000E9     9.341508340348952E-1    1.258483494666816E-1
 8.420000000000000E9     9.412843969663892E-1    2.634660685966348E-2
 8.430000000000000E9     9.382560033802017E-1   -7.467007058862282E-2
 8.440000000000000E9     9.250603900898029E-1   -1.755183591450895E-1
 8.450000000000000E9     9.015746340301258E-1   -2.746653880679925E-1
 8.460000000000000E9     8.672724231163753E-1   -3.707417599115992E-1
 8.470000000000000E9     8.221777741806056E-1   -4.630267555436758E-1
 8.480000000000000E9     7.658904182567418E-1   -5.501809525184477E-1
 8.490000000000000E9     6.983757371811368E-1   -6.317225694302316E-1
 8.500000000000000E9     6.196333208147826E-1   -7.066482728121580E-1
 8.510000000000000E9     5.295897983913864E-1   -7.731013675829090E-1
 8.520000000000000E9     4.293641959551758E-1   -8.302876418443792E-1
 8.530000000000000E9     3.208986466941507E-1   -8.761752369766262E-1
 8.540000000000000E9     2.059424199346782E-1   -9.095843083884516E-1
 8.550000000000000E9     8.660458818801364E-2   -9.288841248232114E-1
 8.560000000000000E9    -3.480968557990207E-2   -9.326540010837350E-1
 8.570000000000000E9    -1.561189899924329E-1   -9.203194479805202E-1
 8.580000000000000E9    -2.756782585197207E-1   -8.910579436286422E-1
 8.590000000000000E9    -3.912435963948352E-1   -8.447152218600811E-1
 8.600000000000000E9    -5.009993930903087E-1   -7.815369143208788E-1
 8.610000000000000E9    -6.028543889994473E-1   -7.023909769544942E-1
 8.620000000000000E9    -6.943526093329735E-1   -6.088880089984010E-1
 8.630000000000000E9    -7.731872745190763E-1   -5.031584462909235E-1
 8.640000000000000E9    -8.374409715843611E-1   -3.876450379761082E-1
 8.650000000000000E9    -8.852291093047542E-1   -2.650417954359264E-1
 8.660000000000000E9    -9.152324071404307E-1   -1.381553396150070E-1
 8.670000000000000E9    -9.266981509534333E-1   -9.529477247195214E-3
 8.680000000000000E9    -9.194397125671585E-1    1.184344896109058E-1
 8.690000000000000E9    -8.939313290238275E-1    2.435669894013818E-1
 8.700000000000000E9    -8.506336894110271E-1    3.639713826257176E-1
 8.710000000000000E9    -7.910244315712581E-1    4.775727182642494E-1
 8.720000000000000E9    -7.166213579179356E-1    5.820916441305314E-1
 8.730000000000000E9    -6.298367507873011E-1    6.755199710954287E-1
 8.740000000000000E9    -5.328852186066703E-1    7.560163675878809E-1
 8.750000000000000E9    -4.279656494034642E-1    8.221697113834051E-1
 8.760000000000000E9    -3.170298689291308E-1    8.730626451842944E-1
 8.770000000000000E9    -2.020696718114300E-1    9.080593493416242E-1
 8.780000000000000E9    -8.405712484081833E-2    9.269036882943710E-1
 8.790000000000000E9     3.541352995869868E-2    9.293915728692848E-1
 8.800000000000000E9     1.545762627516424E-1    9.159363975607286E-1
 8.810000000000000E9     2.718698894388384E-1    8.867555758174449E-1
 8.820000000000000E9     3.852751839392781E-1    8.428794569879591E-1
 8.830000000000000E9     4.928171995532905E-1    7.850805219836887E-1
 8.840000000000000E9     5.920330992262957E-1    7.142623811078553E-1
 8.850000000000000E9     6.811830756746285E-1    6.317007401399640E-1
 8.860000000000000E9     7.579969575555773E-1    5.384397908916417E-1
 8.870000000000000E9     8.217148192283090E-1    4.357416673815162E-1
 8.880000000000000E9     8.708585108972913E-1    3.247879535642252E-1
 8.890000000000000E9     9.043959117299081E-1    2.064541103213092E-1
 8.900000000000000E9     9.219206794497385E-1    8.239484938034593E-2
 8.910000000000000E9     9.224601105252245E-1   -4.518433222444058E-2
 8.920000000000000E9     9.054725834047129E-1   -1.739203067557603E-1
 8.930000000000000E9     8.707732476802111E-1   -3.011149777509047E-1
 8.940000000000000E9     8.185195323852742E-1   -4.233429525468174E-1
 8.950000000000000E9     7.493554591062476E-1   -5.371565508044569E-1
 8.960000000000000E9     6.641711458900392E-1   -6.399178529445200E-1
 8.970000000000000E9     5.642634846536769E-1   -7.289882699455782E-1
 8.980000000000000E9     4.513640126743058E-1   -8.024636774191648E-1
 8.990000000000000E9     3.275770282332996E-1   -8.587661524332874E-1
 9.000000000000000E9     1.954132809335544E-1   -8.961015748805684E-1
 9.010000000000000E9     5.787481021490423E-2   -9.141599382678185E-1
 9.020000000000000E9    -8.160268407415662E-2   -9.122799263759740E-1
 9.030000000000000E9    -2.188409992422791E-1   -8.903083510679354E-1
 9.040000000000000E9    -3.498702329221007E-1   -8.491988388974824E-1
 9.050000000000000E9    -4.717393830083514E-1   -7.904479614938931E-1
 9.060000000000000E9    -5.814497302277228E-1   -7.160831843726103E-1
 9.070000000000000E9    -6.772993341465708E-1   -6.278279741570865E-1
 9.080000000000000E9    -7.578815037063702E-1   -5.283958712031372E-1
 9.090000000000000E9    -8.227778321112151E-1   -4.201044329467037E-1
 9.100000000000000E9    -8.721916923039735E-1   -3.052728914593000E-1
 9.110000000000000E9    -9.058407161327504E-1   -1.864858798286455E-1
 9.120000000000000E9    -9.240560338132393E-1   -6.642807121141894E-2
 9.130000000000000E9    -9.274278214201978E-1    5.226656199731908E-2
 9.140000000000000E9    -9.166728488495662E-1    1.672971469327139E-1
 9.150000000000000E9    -8.928619715848903E-1    2.765711861428818E-1
 9.160000000000000E9    -8.573156254407663E-1    3.784626415554168E-1
 9.170000000000000E9    -8.115042544955106E-1    4.722728389299552E-1
 9.180000000000000E9    -7.565525710361950E-1    5.576197536028928E-1
 9.190000000000000E9    -6.940660483837915E-1    6.345610252411539E-1
 9.200000000000000E9    -6.251402038759860E-1    7.033791892905122E-1
 9.210000000000000E9    -5.508191824206768E-1    7.642532311373801E-1
 9.220000000000000E9    -4.719257454483195E-1    8.169498803657157E-1
 9.230000000000000E9    -3.898550329631343E-1    8.612791431410614E-1
 9.240000000000000E9    -3.052183159525712E-1    8.970153457294322E-1
 9.250000000000000E9    -2.192489898482781E-1    9.239931110811334E-1
 9.260000000000000E9    -1.333360197409721E-1    9.420156076182855E-1
 9.270000000000000E9    -4.788306538190076E-2    9.514492748253875E-1
 9.280000000000000E9     3.638435690045695E-2    9.526982409460236E-1
 9.290000000000000E9     1.192337077226746E-1    9.461210367997102E-1
 9.300000000000000E9     2.004958221325148E-1    9.324022087565883E-1
 9.310000000000000E9     2.801621137039807E-1    9.118118719674412E-1
 9.320000000000000E9     3.579278636405074E-1    8.847172212147836E-1
 9.330000000000000E9     4.334546686897738E-1    8.513330578101184E-1
 9.340000000000000E9     5.062999887261633E-1    8.116085931046410E-1
 9.350000000000000E9     5.754678850804132E-1    7.657132581501808E-1
 9.360000000000000E9     6.405282511456848E-1    7.134958153500307E-1
 9.370000000000000E9     7.005185938936018E-1    6.556893013773372E-1
 9.380000000000000E9     7.550832784593243E-1    5.922711228101661E-1
 9.390000000000000E9     8.036528962544753E-1    5.237488629912611E-1
 9.400000000000000E9     8.462986795492276E-1    4.502949337276579E-1
 9.410000000000000E9     8.825110714578833E-1    3.722229542495377E-1
 9.420000000000000E9     9.123751652209949E-1    2.896604158940976E-1
 9.430000000000000E9     9.353046244883644E-1    2.024705041127678E-1
 9.440000000000000E9     9.501021279804044E-1    1.108452753573933E-1
 9.450000000000000E9     9.558108716970148E-1    1.522047722199138E-2
 9.460000000000000E9     9.512668316446706E-1   -8.360353799894363E-2
 9.470000000000000E9     9.354439003328255E-1   -1.850822245245693E-1
 9.480000000000000E9     9.073028181770882E-1   -2.872128319503420E-1
 9.490000000000000E9     8.659043764257014E-1   -3.886385823283353E-1
 9.500000000000000E9     8.114317214944513E-1   -4.880363403671866E-1
 9.510000000000000E9     7.424363830949032E-1   -5.830166678366100E-1
 9.520000000000000E9     6.585704325557545E-1   -6.719365107707744E-1
 9.530000000000000E9     5.601831886353209E-1   -7.524062641812163E-1
 9.540000000000000E9     4.471137152417731E-1   -8.213544213172057E-1
 9.550000000000000E9     3.196185248389213E-1   -8.751882391725133E-1
 9.560000000000000E9     1.795863759832661E-1   -9.100634926715619E-1
 9.570000000000000E9     2.984806179916422E-2   -9.222402414220987E-1
 9.580000000000000E9    -1.252341802192084E-1   -9.088241704138701E-1
 9.590000000000000E9    -2.800826930760172E-1   -8.678275511546037E-1
 9.600000000000000E9    -4.286563479413484E-1   -7.988274938511013E-1
 9.610000000000000E9    -5.649932256055181E-1   -7.033900531087625E-1
 9.620000000000000E9    -6.829375336694822E-1   -5.842744234269902E-1
 9.630000000000000E9    -7.775836073851448E-1   -4.453277692888422E-1
 9.640000000000000E9    -8.450956257192859E-1   -2.921272149799589E-1
 9.650000000000000E9    -8.827490817499638E-1   -1.304918644704623E-1
 9.660000000000000E9    -8.900121359134262E-1    3.230370839598562E-2
 9.670000000000000E9    -8.687822318067630E-1    1.900411974318748E-1
 9.680000000000000E9    -8.221635721038746E-1    3.370093257148807E-1
 9.690000000000000E9    -7.548001098197099E-1    4.693419585630287E-1
 9.700000000000000E9    -6.710734782762825E-1    5.845057916674108E-1
 9.710000000000000E9    -5.757077541635091E-1    6.809699933224903E-1
 9.720000000000000E9    -4.723391756556884E-1    7.591070433984106E-1
 9.730000000000000E9    -3.643798760391615E-1    8.189302577827839E-1
 9.740000000000000E9    -2.543782834027866E-1    8.614794155650265E-1
 9.750000000000000E9    -1.446175848424409E-1    8.879984777097097E-1
 9.760000000000000E9    -3.685301732134352E-2    8.999410931800734E-1
 9.770000000000000E9     6.730226175882434E-2    8.990616508302138E-1
 9.780000000000000E9     1.661156251349012E-1    8.870720511647248E-1
 9.790000000000000E9     2.591989951031353E-1    8.657173663611576E-1
 9.800000000000000E9     3.456202337117881E-1    8.367165675459201E-1
 9.810000000000000E9     4.254769409031385E-1    8.012526785999039E-1
 9.820000000000000E9     4.984392252286775E-1    7.605031590423602E-1
 9.830000000000000E9     5.650140598366250E-1    7.146627962137465E-1
 9.840000000000000E9     6.252892049398932E-1    6.642825980413358E-1
 9.850000000000000E9     6.794080829522494E-1    6.096596196721553E-1
 9.860000000000000E9     7.273492552845171E-1    5.512477256909591E-1
 9.870000000000000E9     7.693905368215870E-1    4.896561980141320E-1
 9.880000000000000E9     8.057633136627554E-1    4.257928948049138E-1
 9.890000000000000E9     8.366897688678491E-1    3.606428264076932E-1
 9.900000000000000E9     8.622799289053134E-1    2.948091289317314E-1
 9.910000000000000E9     8.828366725662198E-1    2.289966098986614E-1
 9.920000000000000E9     8.983955228447881E-1    1.633005599182159E-1
 9.930000000000000E9     9.089909492704664E-1    9.785231021834816E-2
 9.940000000000000E9     9.144640436719776E-1    3.254281258206737E-2
 9.950000000000000E9     9.146520926976635E-1   -3.287941250665092E-2
 9.960000000000000E9     9.094987090863917E-1   -9.852340961999982E-2
 9.970000000000000E9     8.989353325185195E-1   -1.643289178718292E-1
 9.980000000000000E9     8.832428377941667E-1   -2.301443382880718E-1
 9.990000000000000E9     8.625491529453299E-1   -2.953370229950583E-1
 1.000000000000000E+10   8.374417039558517E-1   -3.592960539831899E-1
 1.001000000000000E+10   8.082482266953087E-1   -4.219195844169339E-1
 1.002000000000000E+10   7.748324639441264E-1   -4.822648166418781E-1
 1.003000000000000E+10   7.372702312415379E-1   -5.401635108871811E-1
 1.004000000000000E+10   6.951587023005473E-1   -5.954014849972900E-1
 1.005000000000000E+10   6.478766450746700E-1   -6.479119554706925E-1
 1.006000000000000E+10   5.947925198014758E-1   -6.975025597994892E-1
 1.007000000000000E+10   5.356316940173022E-1   -7.438197352468543E-1
 1.008000000000000E+10   4.695832647151709E-1   -7.863355576405091E-1
 1.009000000000000E+10   3.970389262198987E-1   -8.247180730608492E-1
 1.010000000000000E+10   3.185878062810547E-1   -8.579242587726640E-1
 1.011000000000000E+10   2.347535557478963E-1   -8.850127140231951E-1
 1.012000000000000E+10   1.468788229130756E-1   -9.054260177121813E-1
 1.013000000000000E+10   5.526531904417829E-2   -9.177348558321676E-1
 1.014000000000000E+10  -3.949174291546079E-2   -9.208171257086738E-1
 1.015000000000000E+10  -1.367805771904085E-1   -9.132887110660286E-1
 1.016000000000000E+10  -2.365981630092688E-1   -8.938185752745987E-1
 1.017000000000000E+10  -3.384149744791907E-1   -8.601679138761261E-1
 1.018000000000000E+10  -4.396881930284874E-1   -8.101189648934276E-1
 1.019000000000000E+10  -5.362885033997472E-1   -7.466363983561101E-1
 1.020000000000000E+10  -6.322710847445631E-1   -6.687334060335375E-1
 1.021000000000000E+10  -7.213291197222129E-1   -5.734881792383851E-1
 1.022000000000000E+10  -7.988208553174340E-1   -4.630420008298572E-1
 1.023000000000000E+10  -8.614919865731377E-1   -3.400306233340628E-1
 1.024000000000000E+10  -9.061034436343393E-1   -2.065295965447821E-1
 1.025000000000000E+10  -9.296045821404879E-1   -6.553939548531706E-2
 1.026000000000000E+10  -9.302272698023563E-1    8.041049227935122E-2
 1.027000000000000E+10  -9.063129513786501E-1    2.277199569872228E-1
 1.028000000000000E+10  -8.569460934331327E-1    3.725889295154040E-1
 1.029000000000000E+10  -7.823588741550218E-1    5.101507355489722E-1
 1.030000000000000E+10  -6.851562881215452E-1    6.355880802758943E-1
 1.031000000000000E+10  -5.686901359063091E-1    7.436425459206026E-1
 1.032000000000000E+10  -4.381433206636622E-1    8.306865342704407E-1
 1.033000000000000E+10  -2.985571507631747E-1    8.944115857746663E-1
 1.034000000000000E+10  -1.551459567299034E-1    9.339054451165397E-1
 1.035000000000000E+10  -1.187747701088674E-2    9.494654879644890E-1
 1.036000000000000E+10   1.277927089199523E-1    9.426881786839909E-1
 1.037000000000000E+10   2.616218548203156E-1    9.153986706319075E-1
 1.038000000000000E+10   3.871434159122571E-1    8.699962742075321E-1
 1.039000000000000E+10   5.026538425407451E-1    8.090314306892282E-1
 1.040000000000000E+10   6.065427468450679E-1    7.357183558183856E-1
 1.041000000000000E+10   6.975369327570674E-1    6.529414084539060E-1
 1.042000000000000E+10   7.747487030493281E-1    5.632373343879102E-1
 1.043000000000000E+10   8.377468516211095E-1    4.695372764950118E-1
 1.044000000000000E+10   8.870080775806699E-1    3.732415943556328E-1
 1.045000000000000E+10   9.230523851501657E-1    2.761407773219713E-1
 1.046000000000000E+10   9.464893489435346E-1    1.781330706015680E-1
 1.047000000000000E+10   9.586629706818904E-1    8.045097353725231E-2
 1.048000000000000E+10   9.607803411627761E-1   -1.649403169166345E-2
 1.049000000000000E+10   9.529206703899328E-1   -1.122727624993818E-1
 1.050000000000000E+10   9.367418956635124E-1   -2.057687686689211E-1
 1.051000000000000E+10   9.129024675695553E-1   -2.956279243650001E-1
 1.052000000000000E+10   8.819280591956169E-1   -3.808664633600574E-1
 1.053000000000000E+10   8.448498484358933E-1   -4.605820546896113E-1
 1.054000000000000E+10   8.021456082726175E-1   -5.341824980089429E-1
 1.055000000000000E+10   7.537694847548475E-1   -6.014618512996848E-1
 1.056000000000000E+10   7.001084060708672E-1   -6.627383237015541E-1
 1.057000000000000E+10   6.406869383163504E-1   -7.181278931480702E-1
 1.058000000000000E+10   5.761748795814536E-1   -7.679116180140511E-1
 1.059000000000000E+10   5.067257972250394E-1   -8.126708091509682E-1
 1.060000000000000E+10   4.329437184679812E-1   -8.520309036962689E-1
 1.061000000000000E+10   3.557208858709797E-1   -8.860002253201236E-1
 1.062000000000000E+10   2.761565348579308E-1   -9.139031206324915E-1
 1.063000000000000E+10   1.954224370004982E-1   -9.353725843750944E-1
 1.064000000000000E+10   1.142318702169980E-1   -9.498199675677099E-1
 1.065000000000000E+10   3.331733472692216E-2   -9.565542402445224E-1
 1.066000000000000E+10  -4.738995981065380E-2   -9.557282222117012E-1
 1.067000000000000E+10  -1.276264686004085E-1   -9.470405002295287E-1
 1.068000000000000E+10  -2.078600209442789E-1   -9.302776341808885E-1
 1.069000000000000E+10  -2.881635907265599E-1   -9.055650213583200E-1
 1.070000000000000E+10  -3.683403233326369E-1   -8.729404277209718E-1
 1.071000000000000E+10  -4.475695440149572E-1   -8.322860610615919E-1
 1.072000000000000E+10  -5.246657829878114E-1   -7.842008793070251E-1
 1.073000000000000E+10  -5.981700343913856E-1   -7.290178011436869E-1
 1.074000000000000E+10  -6.666275052642513E-1   -6.672634506644491E-1
 1.075000000000000E+10  -7.285455070173927E-1   -5.994533777561142E-1
 1.076000000000000E+10  -7.830453073878018E-1   -5.256326553262691E-1
 1.077000000000000E+10  -8.296129856501313E-1   -4.461968987987037E-1
 1.078000000000000E+10  -8.678872721722855E-1   -3.608502639311425E-1
 1.079000000000000E+10  -8.972611301076457E-1   -2.699761403837907E-1
 1.080000000000000E+10  -9.176751279979136E-1   -1.737608099746241E-1
 1.081000000000000E+10  -9.283861570106716E-1   -7.301452530018678E-2
 1.082000000000000E+10  -9.291504164967660E-1    3.132515531771111E-2
 1.083000000000000E+10  -9.187624966572719E-1    1.369710872187518E-1
 1.084000000000000E+10  -8.971409567371545E-1    2.422230914692213E-1
 1.085000000000000E+10  -8.638457777139719E-1    3.447906430181289E-1
 1.086000000000000E+10  -8.186797843023421E-1    4.424141169723245E-1
 1.087000000000000E+10  -7.621673138542622E-1    5.339275047812673E-1
 1.088000000000000E+10  -6.939877863936545E-1    6.184447694541927E-1
 1.089000000000000E+10  -6.150443944259223E-1    6.948457821113966E-1
 1.090000000000000E+10  -5.258992779280741E-1    7.624863713502809E-1
 1.091000000000000E+10  -4.276906180184828E-1    8.204098777834971E-1
 1.092000000000000E+10  -3.212998589982209E-1    8.676001498568224E-1
 1.093000000000000E+10  -2.086796637751021E-1    9.022531901191162E-1
 1.094000000000000E+10  -9.250492715675415E-2    9.235960190783102E-1
 1.095000000000000E+10   2.474051835758483E-2    9.302471085990497E-1
 1.096000000000000E+10   1.409690849749724E-1    9.224918327398406E-1
 1.097000000000000E+10   2.536314599206944E-1    8.999082200442546E-1
 1.098000000000000E+10   3.616549151883496E-1    8.635328980582704E-1
 1.099000000000000E+10   4.641140763895049E-1    8.140725340509621E-1
 1.100000000000000E+10   5.598116180140845E-1    7.521502649597739E-1
 1.101000000000000E+10   6.480556749052135E-1    6.788664974060825E-1
 1.102000000000000E+10   7.277103586350561E-1    5.948545362742023E-1
 1.103000000000000E+10   7.974369288607563E-1    5.021363854455433E-1
 1.104000000000000E+10   8.555498759463652E-1    4.020593210237256E-1
 1.105000000000000E+10   9.007551851826671E-1    2.970548737085184E-1
 1.106000000000000E+10   9.326323685829360E-1    1.891670529651741E-1
 1.107000000000000E+10   9.506918785486955E-1    8.037148826434870E-2
 1.108000000000000E+10   9.554317543609425E-1   -2.826931508040376E-2
 1.109000000000000E+10   9.474467723351317E-1   -1.354297081224113E-1
 1.110000000000000E+10   9.274771084442663E-1   -2.401399429189591E-1
 1.111000000000000E+10   8.961676337454378E-1   -3.417864396804455E-1
 1.112000000000000E+10   8.540211636675753E-1   -4.397621421114105E-1
 1.113000000000000E+10   8.017070185166117E-1   -5.327293948842174E-1
 1.114000000000000E+10   7.393875013600459E-1   -6.196049740919289E-1
 1.115000000000000E+10   6.683749789740734E-1   -6.986004340585307E-1
 1.116000000000000E+10   5.891849528205345E-1   -7.685845082795090E-1
 1.117000000000000E+10   5.031686849166463E-1   -8.284043278431419E-1
 1.118000000000000E+10   4.120571360001279E-1   -8.777425096429391E-1
 1.119000000000000E+10   3.167293840403056E-1   -9.163509316700705E-1
 1.120000000000000E+10   2.176907958448765E-1   -9.445943938901981E-1
 1.121000000000000E+10   1.159646014829862E-1   -9.623874566214492E-1
 1.122000000000000E+10   1.273400220496153E-2   -9.695321107895589E-1
 1.123000000000000E+10  -9.128375153472033E-2   -9.660340734134525E-1
 1.124000000000000E+10  -1.948626644022718E-1   -9.511978440586881E-1
 1.125000000000000E+10  -2.960515051270283E-1   -9.254152687364302E-1
 1.126000000000000E+10  -3.936621740496330E-1   -8.882722905963765E-1
 1.127000000000000E+10  -4.861244956533308E-1   -8.404090884681491E-1
 1.128000000000000E+10  -5.725130379202313E-1   -7.825835456561648E-1
 1.129000000000000E+10  -6.515608769834053E-1   -7.155761378007099E-1
 1.130000000000000E+10  -7.230643405654475E-1   -6.400422175783456E-1
 1.131000000000000E+10  -7.861058587851488E-1   -5.567823913176658E-1
 1.132000000000000E+10  -8.407256740220740E-1   -4.670417487713810E-1
 1.133000000000000E+10  -8.856707424029253E-1   -3.715538908909075E-1
 1.134000000000000E+10  -9.202246355251908E-1   -2.712932773328652E-1
 1.135000000000000E+10  -9.436829229684606E-1   -1.673158666536295E-1
 1.136000000000000E+10  -9.550414057079303E-1   -6.140622301787090E-2
 1.137000000000000E+10  -9.540833620948774E-1    4.494478777711309E-2
 1.138000000000000E+10  -9.405845508211595E-1    1.502468162804803E-1
 1.139000000000000E+10  -9.155024749230246E-1    2.529033941599573E-1
 1.140000000000000E+10  -8.792727509030677E-1    3.517813669545915E-1
 1.141000000000000E+10  -8.328287107618838E-1    4.458490559995141E-1
 1.142000000000000E+10  -7.766821945940954E-1    5.343756694655232E-1
 1.143000000000000E+10  -7.117047407099846E-1    6.164164649603027E-1
 1.144000000000000E+10  -6.382698266724131E-1    6.911250739965255E-1
 1.145000000000000E+10  -5.572439108331158E-1    7.571501992224013E-1
 1.146000000000000E+10  -4.695486020461055E-1    8.132992335431088E-1
 1.147000000000000E+10  -3.764215987631128E-1    8.589010300393813E-1
 1.148000000000000E+10  -2.792914631674976E-1    8.935292859080890E-1
 1.149000000000000E+10  -1.793804085545199E-1    9.171334562273679E-1
 1.150000000000000E+10  -7.833902900860595E-2    9.297395601118648E-1
 1.151000000000000E+10   2.281231700942961E-2    9.318904033658403E-1
 1.152000000000000E+10   1.229579727310809E-1    9.235353399479100E-1
 1.153000000000000E+10   2.213242537604214E-1    9.051502475258143E-1
 1.154000000000000E+10   3.168020497336898E-1    8.769947412279645E-1
 1.155000000000000E+10   4.082749212441880E-1    8.391615040836163E-1
 1.156000000000000E+10   4.951929812526751E-1    7.919265108397321E-1
 1.157000000000000E+10   5.759370210599103E-1    7.356633802710327E-1
 1.158000000000000E+10   6.496997779074132E-1    6.715095592942613E-1
 1.159000000000000E+10   7.158133516389470E-1    6.000670380279175E-1
 1.160000000000000E+10   7.737668084645813E-1    5.231892326662334E-1
 1.161000000000000E+10   8.231878956378450E-1    4.418500280104963E-1
 1.162000000000000E+10   8.642970030285424E-1    3.569827969376079E-1
 1.163000000000000E+10   8.968047078129006E-1    2.693796469613651E-1
 1.164000000000000E+10   9.205840507581107E-1    1.798080951186884E-1
 1.165000000000000E+10   9.351336666394511E-1    8.871938811002560E-2
 1.166000000000000E+10   9.401142869972077E-1   -3.405529588527028E-3
 1.167000000000000E+10   9.352288813027734E-1   -9.564224806901402E-2
 1.168000000000000E+10   9.206026364919403E-1   -1.872543640299625E-1
 1.169000000000000E+10   8.968637962934051E-1   -2.773277107021412E-1
 1.170000000000000E+10   8.641383081940194E-1   -3.647006562948129E-1
 1.171000000000000E+10   8.232943215764179E-1   -4.491070218860836E-1
 1.172000000000000E+10   7.744283395293926E-1   -5.290796450134235E-1
 1.173000000000000E+10   7.181486793966804E-1   -6.040239870443417E-1
 1.174000000000000E+10   6.539738661590001E-1   -6.731039070502453E-1
 1.175000000000000E+10   5.808501792588551E-1   -7.352956288960806E-1
 1.176000000000000E+10   4.970049392668944E-1   -7.885549471572896E-1
 1.177000000000000E+10   3.986484808137073E-1   -8.277291418604107E-1
 1.178000000000000E+10   2.824080577836508E-1   -8.340842574261101E-1
 1.179000000000000E+10   1.957188418494994E-1   -7.594758409878407E-1
 1.180000000000000E+10   2.526535774979466E-1   -7.443674877660958E-1
 1.181000000000000E+10   2.165183016672425E-1   -8.424914082068926E-1
 1.182000000000000E+10   1.200946500970882E-1   -8.980412964098171E-1
 1.183000000000000E+10   1.691607171825914E-2   -9.222825259279563E-1
 1.184000000000000E+10  -8.499555908576446E-2   -9.276739276164421E-1
 1.185000000000000E+10  -1.841724375312988E-1   -9.192560676813278E-1
 1.186000000000000E+10  -2.806155671112285E-1   -8.992306536655897E-1
 1.187000000000000E+10  -3.736814266507121E-1   -8.677772351981621E-1
 1.188000000000000E+10  -4.628914348097445E-1   -8.254885282804563E-1
 1.189000000000000E+10  -5.474561469820844E-1   -7.727087293319082E-1
 1.190000000000000E+10  -6.265002040528213E-1   -7.103564098473401E-1
 1.191000000000000E+10  -6.995727484787246E-1   -6.391690621684368E-1
 1.192000000000000E+10  -7.655803302401863E-1   -5.596707846622546E-1
 1.193000000000000E+10  -8.232193900175933E-1   -4.730580998649828E-1
 1.194000000000000E+10  -8.718781386857617E-1   -3.803952342014084E-1
 1.195000000000000E+10  -9.099820705810432E-1   -2.823278412140644E-1
 1.196000000000000E+10  -9.369729572342073E-1   -1.795643877430857E-1
 1.197000000000000E+10  -9.510518483648236E-1   -7.257339152409788E-2
 1.198000000000000E+10  -9.526617529085216E-1    3.705441797394039E-2
 1.199000000000000E+10  -9.400569103998220E-1    1.482295785542618E-1
 1.200000000000000E+10  -9.137151209284710E-1    2.595380356688675E-1
 1.201000000000000E+10  -8.737044322271947E-1    3.684515165136524E-1
 1.202000000000000E+10  -8.201921264149511E-1    4.735276125260213E-1
 1.203000000000000E+10  -7.546321706785036E-1    5.719247322283508E-1
 1.204000000000000E+10  -6.780781236932119E-1    6.616545769248160E-1
 1.205000000000000E+10  -5.916898143277318E-1    7.407063738884075E-1
 1.206000000000000E+10  -4.963857912270422E-1    8.077349573446680E-1
 1.207000000000000E+10  -3.932477867876585E-1    8.619323380446487E-1
 1.208000000000000E+10  -2.834196219408847E-1    9.020372987869679E-1
 1.209000000000000E+10  -1.684508522058701E-1    9.273322953398281E-1
 1.210000000000000E+10  -5.043619450919076E-2    9.379277024473912E-1
 1.211000000000000E+10   6.839332757901581E-2    9.335377163997423E-1
 1.212000000000000E+10   1.859228994380902E-1    9.151427439809078E-1
 1.213000000000000E+10   2.991856163941960E-1    8.832445109046780E-1
 1.214000000000000E+10   4.063146736921882E-1    8.390766283788758E-1
 1.215000000000000E+10   5.055471906326603E-1    7.830233601862920E-1
 1.216000000000000E+10   5.954333885676792E-1    7.164298187607375E-1
 1.217000000000000E+10   6.747824637448246E-1    6.403759121266691E-1
 1.218000000000000E+10   7.433529801903717E-1    5.557059058604786E-1
 1.219000000000000E+10   8.003695735597104E-1    4.639449150915901E-1
 1.220000000000000E+10   8.460638364983309E-1    3.666165390088342E-1
 1.221000000000000E+10   8.804584381425247E-1    2.653791976952730E-1
 1.222000000000000E+10   9.036312180270587E-1    1.622266388507103E-1
 1.223000000000000E+10   9.158848449448205E-1    5.909519921080156E-2
 1.224000000000000E+10   9.172039499188445E-1   -4.233276108612267E-2
 1.225000000000000E+10   9.082918842556568E-1   -1.405644299384540E-1
 1.226000000000000E+10   8.893336949142194E-1   -2.344007287414881E-1
 1.227000000000000E+10   8.605598297248037E-1   -3.241083199305959E-1
 1.228000000000000E+10   8.224669772457593E-1   -4.087127999787659E-1
 1.229000000000000E+10   7.756069007014094E-1   -4.881550129149687E-1
 1.230000000000000E+10   7.207018615418099E-1   -5.624913392201407E-1
 1.231000000000000E+10   6.587625522042261E-1   -6.313365678941940E-1
 1.232000000000000E+10   5.911519266314047E-1   -6.938561876049234E-1
 1.233000000000000E+10   5.188128452597993E-1   -7.496040116551871E-1
 1.234000000000000E+10   4.435129456293652E-1   -7.979013310242780E-1
 1.235000000000000E+10   3.659956443059013E-1   -8.384475717857038E-1
 1.236000000000000E+10   2.872484124052026E-1   -8.703919455041275E-1
 1.237000000000000E+10   2.077673235734787E-1   -8.943605120856090E-1
 1.238000000000000E+10   1.273267372945814E-1   -9.094592675289012E-1
 1.239000000000000E+10   4.604498809152019E-2   -9.166938247382438E-1
 1.240000000000000E+10  -3.582940712527678E-2   -9.158862173877613E-1
 1.241000000000000E+10  -1.183373056844704E-1   -9.075630278063380E-1
 1.242000000000000E+10  -2.009002775293452E-1   -8.922053757946045E-1
 1.243000000000000E+10  -2.825474235910574E-1   -8.703026633329359E-1
 1.244000000000000E+10  -3.616098820761927E-1   -8.420766518677747E-1
 1.245000000000000E+10  -4.374350678174733E-1   -8.078833358839014E-1
 1.246000000000000E+10  -5.092958973714529E-1   -7.679839285688398E-1
 1.247000000000000E+10  -5.759288371572749E-1   -7.223000514174788E-1
 1.248000000000000E+10  -6.373648020105006E-1   -6.710838257743083E-1
 1.249000000000000E+10  -6.936211499471100E-1   -6.139248360778404E-1
 1.250000000000000E+10  -7.446125348809078E-1   -5.509724415229009E-1
