#  HZ   S   RI   R     50.00 
! Rohde & Schwarz Vector Network Analyzer 
! Rohde-Schwarz,ZNA43-4Port,1332450044101932,2.92
! Created: UTC 6/1/2026, 11:34:39 AM
! freq[Hz]                re:S11                  im:S11
 8.000000000000000E9     2.950329798914111E-1    9.320306835503205E-1
 8.010000000000000E9     3.696400390244267E-1    9.062734622675744E-1
 8.020000000000000E9     4.421517508366167E-1    8.738633379848534E-1
 8.030000000000000E9     5.126391322462547E-1    8.345132075796682E-1
 8.040000000000000E9     5.809763534134084E-1    7.875664039930416E-1
 8.050000000000000E9     6.466743457374987E-1    7.332998131554287E-1
 8.060000000000000E9     7.086948418173656E-1    6.717187301792432E-1
 8.070000000000000E9     7.668874771251722E-1    6.033253423076845E-1
 8.080000000000000E9     8.201568489773912E-1    5.284445266932505E-1
 8.090000000000000E9     8.673129751064172E-1    4.475944051557155E-1
 8.100000000000000E9     9.074928771486120E-1    3.603931419915428E-1
 8.110000000000000E9     9.394804287619455E-1    2.670538213846759E-1
 8.120000000000000E9     9.621387825094231E-1    1.679340126437336E-1
 8.130000000000000E9     9.735329194306386E-1    6.274098779629138E-2
 8.140000000000000E9     9.725360308513148E-1   -4.794065276108245E-2
 8.150000000000000E9     9.574467784021726E-1   -1.634482312138090E-1
 8.160000000000000E9     9.272809973160632E-1   -2.817036181839794E-1
 8.170000000000000E9     8.803443405371264E-1   -4.009600657324491E-1
 8.180000000000000E9     8.158650753697761E-1   -5.180258519041024E-1
 8.190000000000000E9     7.327379831925419E-1   -6.298720257613436E-1
 8.200000000000000E9     6.304804293708928E-1   -7.321495963702478E-1
 8.210000000000000E9     5.084444652360794E-1   -8.212573342669893E-1
 8.220000000000000E9     3.675848391825763E-1   -8.917492925818603E-1
 8.230000000000000E9     2.099473838034196E-1   -9.390235189294902E-1
 8.240000000000000E9     3.906686732856471E-2   -9.580839907084726E-1
 8.250000000000000E9    -1.394509360814858E-1   -9.450588031487928E-1
 8.260000000000000E9    -3.180945746581473E-1   -8.965279302623250E-1
 8.270000000000000E9    -4.858776343603829E-1   -8.101378162456038E-1
 8.280000000000000E9    -6.213293208189531E-1   -6.947833757703439E-1
 8.290000000000000E9    -7.442076582965834E-1   -5.770945649028011E-1
 8.300000000000000E9    -8.503090362320540E-1   -4.251465374379200E-1
 8.310000000000000E9    -9.198365847817795E-1   -2.537603687362051E-1
 8.320000000000000E9    -9.524075196189026E-1   -7.461847567117801E-2
 8.330000000000000E9    -9.495092214415769E-1    1.041614254940170E-1
 8.340000000000000E9    -9.140190943794513E-1    2.758543997890974E-1
 8.350000000000000E9    -8.502644462521587E-1    4.343909251554557E-1
 8.360000000000000E9    -7.639274981286416E-1    5.751199549906922E-1
 8.370000000000000E9    -6.603347938124818E-1    6.952064407175046E-1
 8.380000000000000E9    -5.444957898995250E-1    7.928158761859860E-1
 8.390000000000000E9    -4.208516896700719E-1    8.679394125578082E-1
 8.400000000000000E9    -2.930683595991315E-1    9.211498783897236E-1
 8.410000000000000E9    -1.637252587850502E-1    9.535702676198131E-1
 8.420000000000000E9    -3.483680995557171E-2    9.665383889095640E-1
 8.430000000000000E9     9.185657465912397E-2    9.621130345299607E-1
 8.440000000000000E9     2.143899811699864E-1    9.417284012650859E-1
 8.450000000000000E9     3.311801107380257E-1    9.072874454982098E-1
 8.460000000000000E9     4.405928041414455E-1    8.604092492096383E-1
 8.470000000000000E9     5.411257920229836E-1    8.031339640416668E-1
 8.480000000000000E9     6.316611126564784E-1    7.368516560876273E-1
 8.490000000000000E9     7.117167964444534E-1    6.627485414695233E-1
 8.500000000000000E9     7.809207811581945E-1    5.820906166130159E-1
 8.510000000000000E9     8.394961228528335E-1    4.943115454651874E-1
 8.520000000000000E9     8.875003822832445E-1    4.004348771081446E-1
 8.530000000000000E9     9.244178819066002E-1    3.012641957232284E-1
 8.540000000000000E9     9.504868915104425E-1    1.977664357218926E-1
 8.550000000000000E9     9.657112540964665E-1    9.133894476310225E-2
 8.560000000000000E9     9.697237304240510E-1   -1.674283796365852E-2
 8.570000000000000E9     9.624475204195003E-1   -1.244349374829440E-1
 8.580000000000000E9     9.440384587026609E-1   -2.304258814329277E-1
 8.590000000000000E9     9.142495822894950E-1   -3.330171999632959E-1
 8.600000000000000E9     8.728633000324089E-1   -4.313703248445184E-1
 8.610000000000000E9     8.201620692821886E-1   -5.244301237983799E-1
 8.620000000000000E9     7.560914920920397E-1   -6.114397345205987E-1
 8.630000000000000E9     6.809258654009027E-1   -6.915931829953149E-1
 8.640000000000000E9     5.957549470841714E-1   -7.638610839117973E-1
 8.650000000000000E9     5.016120497194736E-1   -8.270025749900155E-1
 8.660000000000000E9     3.997203265333885E-1   -8.801066367340028E-1
 8.670000000000000E9     2.918256967435061E-1   -9.218413617292973E-1
 8.680000000000000E9     1.799477291997465E-1   -9.509087632683555E-1
 8.690000000000000E9     6.548723238674750E-2   -9.664434872961861E-1
 8.700000000000000E9    -4.995759266484948E-2   -9.680377059502252E-1
 8.710000000000000E9    -1.647748227179381E-1   -9.547152209354284E-1
 8.720000000000000E9    -2.781096003031223E-1   -9.270317214764393E-1
 8.730000000000000E9    -3.882436236518806E-1   -8.847472164032529E-1
 8.740000000000000E9    -4.933446125702301E-1   -8.285631566225744E-1
 8.750000000000000E9    -5.919383418680574E-1   -7.595609892880505E-1
 8.760000000000000E9    -6.819103564095644E-1   -6.795987523811839E-1
 8.770000000000000E9    -7.615821820448881E-1   -5.899064166482902E-1
 8.780000000000000E9    -8.293702435399013E-1   -4.926271976503098E-1
 8.790000000000000E9    -8.842728732383873E-1   -3.895042646597650E-1
 8.800000000000000E9    -9.255249074331870E-1   -2.818022752969417E-1
 8.810000000000000E9    -9.526038677863954E-1   -1.710810495783514E-1
 8.820000000000000E9    -9.654870925562170E-1   -5.851517133056273E-2
 8.830000000000000E9    -9.645298090948093E-1    5.463183660652384E-2
 8.840000000000000E9    -9.501803610171834E-1    1.670934451841986E-1
 8.850000000000000E9    -9.233107214072602E-1    2.770567010730880E-1
 8.860000000000000E9    -8.846403979907173E-1    3.829825815647034E-1
 8.870000000000000E9    -8.352530807223083E-1    4.830406813025741E-1
 8.880000000000000E9    -7.761721406951473E-1    5.754542151425512E-1
 8.890000000000000E9    -7.085509227396320E-1    6.592584297949470E-1
 8.900000000000000E9    -6.332840074404589E-1    7.334977678746324E-1
 8.910000000000000E9    -5.513090970677532E-1    7.975186215240568E-1
 8.920000000000000E9    -4.630283844301278E-1    8.514562699943857E-1
 8.930000000000000E9    -3.692808551122504E-1    8.952435605860397E-1
 8.940000000000000E9    -2.710029412987534E-1    9.286789312608504E-1
 8.950000000000000E9    -1.692724772965339E-1    9.517531404204771E-1
 8.960000000000000E9    -6.559102198753519E-2    9.645356314308298E-1
 8.970000000000000E9     3.869823085876903E-2    9.665290155430595E-1
 8.980000000000000E9     1.421713211135973E-1    9.579093374650668E-1
 8.990000000000000E9     2.433499886951683E-1    9.386330120577244E-1
 9.000000000000000E9     3.414487916634133E-1    9.086858918291437E-1
 9.010000000000000E9     4.351733350230225E-1    8.679904059052519E-1
 9.020000000000000E9     5.240472514747998E-1    8.164977627241558E-1
 9.030000000000000E9     6.080111899967907E-1    7.544023169001067E-1
 9.040000000000000E9     6.861734835506929E-1    6.818129419430013E-1
 9.050000000000000E9     7.574256918105635E-1    5.993439025588339E-1
 9.060000000000000E9     8.203911997117854E-1    5.074907283218354E-1
 9.070000000000000E9     8.742569462029706E-1    4.076165751310083E-1
 9.080000000000000E9     9.170075361609203E-1    3.003338707153040E-1
 9.090000000000000E9     9.470950611796800E-1    1.874021828052496E-1
 9.100000000000000E9     9.629833764046883E-1    7.045252308354696E-2
 9.110000000000000E9     9.637369397639753E-1   -4.928787040040528E-2
 9.120000000000000E9     9.480222474304880E-1   -1.705457941141568E-1
 9.130000000000000E9     9.154304340592594E-1   -2.913832991143156E-1
 9.140000000000000E9     8.653639988190782E-1   -4.103720167047574E-1
 9.150000000000000E9     7.976734951595417E-1   -5.249388605504307E-1
 9.160000000000000E9     7.119805900248055E-1   -6.325786121302338E-1
 9.170000000000000E9     6.094678465029524E-1   -7.294766880200685E-1
 9.180000000000000E9     4.915669252591607E-1   -8.122674576624391E-1
 9.190000000000000E9     3.607959755050333E-1   -8.772171515729841E-1
 9.200000000000000E9     2.205296027016357E-1   -9.211043964571273E-1
 9.210000000000000E9     7.457538584634163E-2   -9.427472079752106E-1
 9.220000000000000E9    -7.340436040937268E-2   -9.409489163110615E-1
 9.230000000000000E9    -2.196518065652102E-1   -9.152770890345158E-1
 9.240000000000000E9    -3.604062799317710E-1   -8.672153285048283E-1
 9.250000000000000E9    -4.923706899039775E-1   -7.978734955287078E-1
 9.260000000000000E9    -6.117330159247832E-1   -7.093487976019477E-1
 9.270000000000000E9    -7.152605177777348E-1   -6.046523827095238E-1
 9.280000000000000E9    -8.002862462432884E-1   -4.872303241739097E-1
 9.290000000000000E9    -8.652663678045802E-1   -3.612365096134677E-1
 9.300000000000000E9    -9.091299223174411E-1   -2.306652270171656E-1
 9.310000000000000E9    -9.330323583449630E-1   -9.911031438482154E-2
 9.320000000000000E9    -9.376707638130740E-1    3.022892065602521E-2
 9.330000000000000E9    -9.253280119011090E-1    1.550364633365546E-1
 9.340000000000000E9    -8.977119520653181E-1    2.734685268288606E-1
 9.350000000000000E9    -8.572440161678069E-1    3.843540385794095E-1
 9.360000000000000E9    -8.053801636852398E-1    4.867083785250858E-1
 9.370000000000000E9    -7.437940331100407E-1    5.796376356216415E-1
 9.380000000000000E9    -6.742623190015146E-1    6.622446108505645E-1
 9.390000000000000E9    -5.983426162749663E-1    7.338666383888369E-1
 9.400000000000000E9    -5.180165677414066E-1    7.942790840076428E-1
 9.410000000000000E9    -4.346957654682205E-1    8.439917999882851E-1
 9.420000000000000E9    -3.497925595456691E-1    8.831538422945342E-1
 9.430000000000000E9    -2.645041352961740E-1    9.129994566320875E-1
 9.440000000000000E9    -1.794469193409750E-1    9.342599071972367E-1
 9.450000000000000E9    -9.512930806259914E-2    9.475742660299751E-1
 9.460000000000000E9    -1.173069847801078E-2    9.537374458734634E-1
 9.470000000000000E9     7.008706016335112E-2    9.527452653711761E-1
 9.480000000000000E9     1.501454464949619E-1    9.448590878258886E-1
 9.490000000000000E9     2.280349179942643E-1    9.304364395461197E-1
 9.500000000000000E9     3.030980820844525E-1    9.094101368987512E-1
 9.510000000000000E9     3.749138708524901E-1    8.828298620307362E-1
 9.520000000000000E9     4.432301255813828E-1    8.508120331209945E-1
 9.530000000000000E9     5.076068578216533E-1    8.141900381394434E-1
 9.540000000000000E9     5.681411808148498E-1    7.734983625192261E-1
 9.550000000000000E9     6.248477467313954E-1    7.291428534014082E-1
 9.560000000000000E9     6.777923511694615E-1    6.815316351337153E-1
 9.570000000000000E9     7.268459535565682E-1    6.305886749487400E-1
 9.580000000000000E9     7.720683238889245E-1    5.763718523979600E-1
 9.590000000000000E9     8.129199727957528E-1    5.187376106030772E-1
 9.600000000000000E9     8.494059889583641E-1    4.577301656911573E-1
 9.610000000000000E9     8.811815366240066E-1    3.935546945665168E-1
 9.620000000000000E9     9.078923379670427E-1    3.264568985161866E-1
 9.630000000000000E9     9.294855598510151E-1    2.570289196449069E-1
 9.640000000000000E9     9.459191026550675E-1    1.858152408609582E-1
 9.650000000000000E9     9.573344302802571E-1    1.133111959977487E-1
 9.660000000000000E9     9.635181268035428E-1    3.920383673722620E-2
 9.670000000000000E9     9.643262926107926E-1   -3.582521883672323E-2
 9.680000000000000E9     9.590791636869316E-1   -1.119550880997937E-1
 9.690000000000000E9     9.473889549767993E-1   -1.887378130403777E-1
 9.700000000000000E9     9.284927354458147E-1   -2.662713044533417E-1
 9.710000000000000E9     9.022338773161628E-1   -3.442415431029092E-1
 9.720000000000000E9     8.678574501696136E-1   -4.215581810656622E-1
 9.730000000000000E9     8.252021797977980E-1   -4.977486288521974E-1
 9.740000000000000E9     7.743125764422208E-1   -5.720525570916960E-1
 9.750000000000000E9     7.150646271578376E-1   -6.435046724272598E-1
 9.760000000000000E9     6.473145338759747E-1   -7.109859182549100E-1
 9.770000000000000E9     5.711558221877315E-1   -7.733429721580911E-1
 9.780000000000000E9     4.858263371238170E-1   -8.295867705101112E-1
 9.790000000000000E9     3.912299298527205E-1   -8.779737666040728E-1
 9.800000000000000E9     2.872153404140013E-1   -9.164269255371226E-1
 9.810000000000000E9     1.739388827496217E-1   -9.429767981567069E-1
 9.820000000000000E9     5.231664999938322E-2   -9.550109735690286E-1
 9.830000000000000E9    -7.547509680445143E-2   -9.508625221223198E-1
 9.840000000000000E9    -2.069927519050499E-1   -9.282720218263395E-1
 9.850000000000000E9    -3.387769569785140E-1   -8.858904060044175E-1
 9.860000000000000E9    -4.673016306602075E-1   -8.231655160856814E-1
 9.870000000000000E9    -5.882532479096806E-1   -7.398151389966564E-1
 9.880000000000000E9    -6.971934787316636E-1   -6.359431817122114E-1
 9.890000000000000E9    -7.898435718862041E-1   -5.127059903216538E-1
 9.900000000000000E9    -8.617557493529128E-1   -3.725364479999327E-1
 9.910000000000000E9    -9.089921843463217E-1   -2.193830315185413E-1
 9.920000000000000E9    -9.289566838163161E-1   -5.854261260172154E-2
 9.930000000000000E9    -9.205942191736087E-1    1.036333621914764E-1
 9.940000000000000E9    -8.853656269572212E-1    2.605951789040015E-1
 9.950000000000000E9    -8.254996689910244E-1    4.067720374027949E-1
 9.960000000000000E9    -7.448155987673315E-1    5.373969781136984E-1
 9.970000000000000E9    -6.476477037772425E-1    6.495363718820787E-1
 9.980000000000000E9    -5.380573982070009E-1    7.414623081875565E-1
 9.990000000000000E9    -4.200278963247507E-1    8.126378130862252E-1
 1.000000000000000E+10  -2.971810277104878E-1    8.636662191707613E-1
 1.001000000000000E+10  -1.720731539396535E-1    8.946365239363954E-1
 1.002000000000000E+10  -4.869390820028500E-2    9.079657527659094E-1
 1.003000000000000E+10   7.036635391104619E-2    9.056558899973192E-1
 1.004000000000000E+10   1.830573346283526E-1    8.898927448971757E-1
 1.005000000000000E+10   2.876689898435117E-1    8.628489773328847E-1
 1.006000000000000E+10   3.834083006944234E-1    8.270262939777679E-1
 1.007000000000000E+10   4.702864976130912E-1    7.830957366130613E-1
 1.008000000000000E+10   5.482507098796021E-1    7.329121413313742E-1
 1.009000000000000E+10   6.179288004770553E-1    6.768029258034758E-1
 1.010000000000000E+10   6.795005081324945E-1    6.152841842082907E-1
 1.011000000000000E+10   7.338350259487186E-1    5.491665831914798E-1
 1.012000000000000E+10   7.808104441072312E-1    4.790764592147125E-1
 1.013000000000000E+10   8.211084542042666E-1    4.063415384935157E-1
 1.014000000000000E+10   8.547530317681907E-1    3.325103915171743E-1
 1.015000000000000E+10   8.821247629508145E-1    2.584872435407938E-1
 1.016000000000000E+10   9.030849212755980E-1    1.849298786190023E-1
 1.017000000000000E+10   9.180359004371362E-1    1.128942627329016E-1
 1.018000000000000E+10   9.268800819183601E-1    4.222897936661226E-2
 1.019000000000000E+10   9.294824383791209E-1   -2.708363433038730E-2
 1.020000000000000E+10   9.261353201180674E-1   -9.531958969021050E-2
 1.021000000000000E+10   9.168634964169636E-1   -1.632334470226709E-1
 1.022000000000000E+10   9.017924590402038E-1   -2.309812686187915E-1
 1.023000000000000E+10   8.810384712553752E-1   -2.984880880989353E-1
 1.024000000000000E+10   8.549816593125856E-1   -3.651241713594398E-1
 1.025000000000000E+10   8.245242612142475E-1   -4.303188579246945E-1
 1.026000000000000E+10   7.898469595091546E-1   -4.930820241981372E-1
 1.027000000000000E+10   7.518202880002303E-1   -5.524037887593960E-1
 1.028000000000000E+10   7.104489545039165E-1   -6.079360336872346E-1
 1.029000000000000E+10   6.659393478500601E-1   -6.591559183796973E-1
 1.030000000000000E+10   6.178603993164461E-1   -7.061051317387537E-1
 1.031000000000000E+10   5.655683623800407E-1   -7.488372277031299E-1
 1.032000000000000E+10   5.087116069089701E-1   -7.876919577391195E-1
 1.033000000000000E+10   4.471607973648811E-1   -8.223230124314912E-1
 1.034000000000000E+10   3.811500155618337E-1   -8.529698412861837E-1
 1.035000000000000E+10   3.110467507808177E-1   -8.794546520091876E-1
 1.036000000000000E+10   2.374173989633220E-1   -9.012472419427980E-1
 1.037000000000000E+10   1.614140078559189E-1   -9.179408113511430E-1
 1.038000000000000E+10   8.381812557028175E-2   -9.289446579254566E-1
 1.039000000000000E+10   5.659266962405131E-3   -9.335568676548850E-1
 1.040000000000000E+10  -7.291584926403684E-2   -9.312033598207279E-1
 1.041000000000000E+10  -1.518263133808964E-1   -9.214782526450631E-1
 1.042000000000000E+10  -2.307988038842163E-1   -9.037261032612217E-1
 1.043000000000000E+10  -3.102476617666727E-1   -8.775203297361970E-1
 1.044000000000000E+10  -3.898431612826787E-1   -8.425005740614993E-1
 1.045000000000000E+10  -4.687928186637609E-1   -7.983763261357888E-1
 1.046000000000000E+10  -5.460476643863956E-1   -7.456094775259159E-1
 1.047000000000000E+10  -6.201128097885766E-1   -6.843109992946877E-1
 1.048000000000000E+10  -6.891640742639329E-1   -6.146688676812204E-1
 1.049000000000000E+10  -7.517786217724719E-1   -5.375426842780979E-1
 1.050000000000000E+10  -8.059537951614347E-1   -4.532457664076602E-1
 1.051000000000000E+10  -8.509655024853454E-1   -3.618930321539301E-1
 1.052000000000000E+10  -8.854282931534021E-1   -2.639291896131142E-1
 1.053000000000000E+10  -9.084852811692642E-1   -1.593098182326352E-1
 1.054000000000000E+10  -9.188622209985250E-1   -4.884791057083748E-2
 1.055000000000000E+10  -9.159013511522334E-1    6.641360992811465E-2
 1.056000000000000E+10  -8.984109485775637E-1    1.840190886781823E-1
 1.057000000000000E+10  -8.668465534392196E-1    3.015265135810589E-1
 1.058000000000000E+10  -8.203944004387590E-1    4.158810210839537E-1
 1.059000000000000E+10  -7.594655354506283E-1    5.236452571881193E-1
 1.060000000000000E+10  -6.849576054670289E-1    6.224968887370542E-1
 1.061000000000000E+10  -5.974633594561600E-1    7.099939444243283E-1
 1.062000000000000E+10  -4.983287245831572E-1    7.846636089277870E-1
 1.063000000000000E+10  -3.884936372225916E-1    8.449286055088856E-1
 1.064000000000000E+10  -2.700746094691631E-1    8.899266592195683E-1
 1.065000000000000E+10  -1.448000305837096E-1    9.192246459201705E-1
 1.066000000000000E+10  -1.580822603600800E-2    9.319050073025373E-1
 1.067000000000000E+10   1.137868353471428E-1    9.278457130014420E-1
 1.068000000000000E+10   2.404977374467058E-1    9.072948896737182E-1
 1.069000000000000E+10   3.609082631855726E-1    8.712866442036887E-1
 1.070000000000000E+10   4.727901428199115E-1    8.210422106920870E-1
 1.071000000000000E+10   5.742487222861247E-1    7.579953615049266E-1
 1.072000000000000E+10   6.643512431703439E-1    6.837000408564945E-1
 1.073000000000000E+10   7.431221806981488E-1    5.993452317672336E-1
 1.074000000000000E+10   8.099038245078082E-1    5.067291935335099E-1
 1.075000000000000E+10   8.651705542898942E-1    4.068730503582405E-1
 1.076000000000000E+10   9.084511524094477E-1    3.022051953634613E-1
 1.077000000000000E+10   9.395701675247048E-1    1.941336944312670E-1
 1.078000000000000E+10   9.584648454207324E-1    8.572587664240307E-2
 1.079000000000000E+10   9.649190720549679E-1   -2.144397484391430E-2
 1.080000000000000E+10   9.598154524779442E-1   -1.252721881448252E-1
 1.081000000000000E+10   9.435088729523343E-1   -2.250126113679781E-1
 1.082000000000000E+10   9.166707447211007E-1   -3.195436449987518E-1
 1.083000000000000E+10   8.802789647584109E-1   -4.093932460026747E-1
 1.084000000000000E+10   8.345965001993964E-1   -4.941007097380978E-1
 1.085000000000000E+10   7.810609582435474E-1   -5.738199077652650E-1
 1.086000000000000E+10   7.198435207756275E-1   -6.484471330654791E-1
 1.087000000000000E+10   6.520201847276635E-1   -7.171286445650865E-1
 1.088000000000000E+10   5.791664535190996E-1   -7.785282669699379E-1
 1.089000000000000E+10   5.019001492797923E-1   -8.323860590580289E-1
 1.090000000000000E+10   4.213148393229387E-1   -8.774419847475641E-1
 1.091000000000000E+10   3.380657127163241E-1   -9.134000723805996E-1
 1.092000000000000E+10   2.533206104244425E-1   -9.401543308477408E-1
 1.093000000000000E+10   1.674819169156271E-1   -9.581465565737853E-1
 1.094000000000000E+10   8.012856610369772E-2   -9.675856138399704E-1
 1.095000000000000E+10  -8.280990996408215E-3   -9.690805143542374E-1
 1.096000000000000E+10  -9.759645945904574E-2   -9.621275692511504E-1
 1.097000000000000E+10  -1.875240751246693E-1   -9.477320911063903E-1
 1.098000000000000E+10  -2.765035900684381E-1   -9.249777718972381E-1
 1.099000000000000E+10  -3.632562470281321E-1   -8.944087480382815E-1
 1.100000000000000E+10  -4.463873693524760E-1   -8.561910741448473E-1
 1.101000000000000E+10  -5.246263971140497E-1   -8.106748144953022E-1
 1.102000000000000E+10  -5.968725215961437E-1   -7.580575364159439E-1
 1.103000000000000E+10  -6.632445516776660E-1   -6.988206515984429E-1
 1.104000000000000E+10  -7.230135474172558E-1   -6.332207680880448E-1
 1.105000000000000E+10  -7.764620455846437E-1   -5.617850197763926E-1
 1.106000000000000E+10  -8.237453583063143E-1   -4.846504820493853E-1
 1.107000000000000E+10  -8.644533875228316E-1   -4.019983016302083E-1
 1.108000000000000E+10  -8.980767600319391E-1   -3.146940361657953E-1
 1.109000000000000E+10  -9.236940343386160E-1   -2.235108633062361E-1
 1.110000000000000E+10  -9.408070328527899E-1   -1.294561581569672E-1
 1.111000000000000E+10  -9.482970344003703E-1   -3.389723894448494E-2
 1.112000000000000E+10  -9.457585206430610E-1    6.148294931480843E-2
 1.113000000000000E+10  -9.331189068982519E-1    1.557320239376953E-1
 1.114000000000000E+10  -9.106603970035635E-1    2.478661076263961E-1
 1.115000000000000E+10  -8.786838197082204E-1    3.373042844178901E-1
 1.116000000000000E+10  -8.378368574102523E-1    4.235052885671334E-1
 1.117000000000000E+10  -7.882961199910997E-1    5.059256992325192E-1
 1.118000000000000E+10  -7.303799476701873E-1    5.840073236533108E-1
 1.119000000000000E+10  -6.647269207793526E-1    6.565520301921117E-1
 1.120000000000000E+10  -5.919620846152484E-1    7.221866548034510E-1
 1.121000000000000E+10  -5.126326922525966E-1    7.797948596381514E-1
 1.122000000000000E+10  -4.278676604012486E-1    8.284826787049570E-1
 1.123000000000000E+10  -3.386758756694974E-1    8.673764821419857E-1
 1.124000000000000E+10  -2.464797405854557E-1    8.963789163808372E-1
 1.125000000000000E+10  -1.517742467678076E-1    9.154957931134945E-1
 1.126000000000000E+10  -5.611555183659370E-2    9.246636429913400E-1
 1.127000000000000E+10   4.016336205561263E-2    9.244879303510497E-1
 1.128000000000000E+10   1.361940420750496E-1    9.147216890721377E-1
 1.129000000000000E+10   2.310547581769658E-1    8.957329510199723E-1
 1.130000000000000E+10   3.232620340457424E-1    8.672970563232042E-1
 1.131000000000000E+10   4.118639892715885E-1    8.300394355872266E-1
 1.132000000000000E+10   4.953511567528393E-1    7.837803301913272E-1
 1.133000000000000E+10   5.729814156356885E-1    7.293620877614686E-1
 1.134000000000000E+10   6.438247069493661E-1    6.677105181496753E-1
 1.135000000000000E+10   7.075520255531043E-1    5.997965200574696E-1
 1.136000000000000E+10   7.638471643407742E-1    5.259807533929739E-1
 1.137000000000000E+10   8.127815636837372E-1    4.476741555188803E-1
 1.138000000000000E+10   8.543651481565010E-1    3.654448684871692E-1
 1.139000000000000E+10   8.879361924534701E-1    2.795337643559645E-1
 1.140000000000000E+10   9.130842641523724E-1    1.908203985463290E-1
 1.141000000000000E+10   9.296675917648584E-1    1.000738622098802E-1
 1.142000000000000E+10   9.367855092573889E-1    8.260416846123055E-3
 1.143000000000000E+10   9.344474214893707E-1   -8.351289231292876E-2
 1.144000000000000E+10   9.226753382486929E-1   -1.742822028387432E-1
 1.145000000000000E+10   9.018476208256170E-1   -2.630444413800622E-1
 1.146000000000000E+10   8.728386760605519E-1   -3.493964329705022E-1
 1.147000000000000E+10   8.358796102374279E-1   -4.325693303894945E-1
 1.148000000000000E+10   7.912329500932116E-1   -5.122492183551411E-1
 1.149000000000000E+10   7.394351781753031E-1   -5.875718199142058E-1
 1.150000000000000E+10   6.804699046248094E-1   -6.581709390292827E-1
 1.151000000000000E+10   6.146438345992281E-1   -7.229027293514849E-1
 1.152000000000000E+10   5.425439302795494E-1   -7.808954034519401E-1
 1.153000000000000E+10   4.645800916049387E-1   -8.315339734237110E-1
 1.154000000000000E+10   3.812815883951137E-1   -8.739154737441330E-1
 1.155000000000000E+10   2.938107224049866E-1   -9.076174508793726E-1
 1.156000000000000E+10   2.032270009614824E-1   -9.321244116532807E-1
 1.157000000000000E+10   1.102645813983499E-1   -9.480129652132849E-1
 1.158000000000000E+10   1.602778612421364E-2   -9.549666395898130E-1
 1.159000000000000E+10  -7.870442971061249E-2   -9.526366242929615E-1
 1.160000000000000E+10  -1.739793288139972E-1   -9.411573328694720E-1
 1.161000000000000E+10  -2.682342667361426E-1   -9.199548678443609E-1
 1.162000000000000E+10  -3.612440518971323E-1   -8.883768665396341E-1
 1.163000000000000E+10  -4.512447789882824E-1   -8.465083928264352E-1
 1.164000000000000E+10  -5.373188898058497E-1   -7.941154504949716E-1
 1.165000000000000E+10  -6.183390089617438E-1   -7.323518874894437E-1
 1.166000000000000E+10  -6.924954772854806E-1   -6.617626536981599E-1
 1.167000000000000E+10  -7.594530318760503E-1   -5.834384347247636E-1
 1.168000000000000E+10  -8.180416857454468E-1   -4.986671756172963E-1
 1.169000000000000E+10  -8.675731486410215E-1   -4.076624397673450E-1
 1.170000000000000E+10  -9.075731980965843E-1   -3.115423743218722E-1
 1.171000000000000E+10  -9.362541593587514E-1   -2.113070668335588E-1
 1.172000000000000E+10  -9.536730494816671E-1   -1.076634646438351E-1
 1.173000000000000E+10  -9.588463918462138E-1   -1.347943088179214E-3
 1.174000000000000E+10  -9.514230077140775E-1    1.063730241827133E-1
 1.175000000000000E+10  -9.312261553919735E-1    2.136717121353742E-1
 1.176000000000000E+10  -8.987400820180460E-1    3.192801110542232E-1
 1.177000000000000E+10  -8.541848203299497E-1    4.211608919033688E-1
 1.178000000000000E+10  -7.985719139781314E-1    5.176012423210242E-1
 1.179000000000000E+10  -7.329977252506525E-1    6.067150715438014E-1
 1.180000000000000E+10  -6.582487039407000E-1    6.872276828258280E-1
 1.181000000000000E+10  -5.753242716188171E-1    7.580301948375305E-1
 1.182000000000000E+10  -4.852413401448181E-1    8.182412337502472E-1
 1.183000000000000E+10  -3.881423381617161E-1    8.671354080391885E-1
 1.184000000000000E+10  -2.861567834571778E-1    9.034556182769561E-1
 1.185000000000000E+10  -1.805768150843021E-1    9.276543265040820E-1
 1.186000000000000E+10  -7.302067754568729E-2    9.394980504833107E-1
 1.187000000000000E+10   3.455893723721305E-2    9.394496318751845E-1
 1.188000000000000E+10   1.406586358210504E-1    9.281009010071807E-1
 1.189000000000000E+10   2.435720861349399E-1    9.059581269275330E-1
 1.190000000000000E+10   3.420303893363826E-1    8.735933710861433E-1
 1.191000000000000E+10   4.351491680316980E-1    8.312662730517119E-1
 1.192000000000000E+10   5.215384120655062E-1    7.794525160622829E-1
 1.193000000000000E+10   6.007599411656903E-1    7.186892525649842E-1
 1.194000000000000E+10   6.720517918869551E-1    6.497355503468342E-1
 1.195000000000000E+10   7.351607095632277E-1    5.739181838992741E-1
 1.196000000000000E+10   7.896214341789580E-1    4.923207665087956E-1
 1.197000000000000E+10   8.353828071818244E-1    4.067028534906802E-1
 1.198000000000000E+10   8.721539694486581E-1    3.183884118031852E-1
 1.199000000000000E+10   9.001474433532386E-1    2.289214018825595E-1
 1.200000000000000E+10   9.193288636545234E-1    1.395985542520522E-1
 1.201000000000000E+10   9.295836807507962E-1    5.099239394329388E-2
 1.202000000000000E+10   9.312484643207912E-1   -3.614201620128487E-2
 1.203000000000000E+10   9.241303155313746E-1   -1.217268289708437E-1
 1.204000000000000E+10   9.084475174226332E-1   -2.054363542686780E-1
 1.205000000000000E+10   8.846489256922484E-1   -2.874704877973715E-1
 1.206000000000000E+10   8.532322473917004E-1   -3.670558313221148E-1
 1.207000000000000E+10   8.148447246460024E-1   -4.435852892893340E-1
 1.208000000000000E+10   7.703242848212901E-1   -5.168052233332620E-1
 1.209000000000000E+10   7.204691313119667E-1   -5.852336881634941E-1
 1.210000000000000E+10   6.663363064355139E-1   -6.485607160048389E-1
 1.211000000000000E+10   6.081295427951205E-1   -7.060870344481943E-1
 1.212000000000000E+10   5.461533625877024E-1   -7.571924727193176E-1
 1.213000000000000E+10   4.807292302809494E-1   -8.018281230136557E-1
 1.214000000000000E+10   4.113684867433141E-1   -8.396325130031256E-1
 1.215000000000000E+10   3.389481608788099E-1   -8.710331463898703E-1
 1.216000000000000E+10   2.631116409660940E-1   -8.959504620325196E-1
 1.217000000000000E+10   1.848526395697358E-1   -9.146609823814356E-1
 1.218000000000000E+10   1.046031022052488E-1   -9.272694896166102E-1
 1.219000000000000E+10   2.350480095282856E-2   -9.339138786468810E-1
 1.220000000000000E+10  -5.749662755588848E-2   -9.345019314662202E-1
 1.221000000000000E+10  -1.375554417423567E-1   -9.286058500560369E-1
 1.222000000000000E+10  -2.160596241925972E-1   -9.163580451223757E-1
 1.223000000000000E+10  -2.921908629143296E-1   -8.972368944132261E-1
 1.224000000000000E+10  -3.659864285896697E-1   -8.711106928769725E-1
 1.225000000000000E+10  -4.376013837351149E-1   -8.377326568689131E-1
 1.226000000000000E+10  -5.068495682130046E-1   -7.973095706091340E-1
 1.227000000000000E+10  -5.734726004058132E-1   -7.492920174468299E-1
 1.228000000000000E+10  -6.372068949050138E-1   -6.950262701522505E-1
 1.229000000000000E+10  -6.973946272076516E-1   -6.348286115280960E-1
 1.230000000000000E+10  -7.530848742448973E-1   -5.695396042418834E-1
 1.231000000000000E+10  -8.036970807068965E-1   -4.997747209645976E-1
 1.232000000000000E+10  -8.481999433124110E-1   -4.264902516836139E-1
 1.233000000000000E+10  -8.854509118552294E-1   -3.501250795474541E-1
 1.234000000000000E+10  -9.155285271196931E-1   -2.707427429401195E-1
 1.235000000000000E+10  -9.374255404871149E-1   -1.880597918260497E-1
 1.236000000000000E+10  -9.509199477821478E-1   -1.025878958769211E-1
 1.237000000000000E+10  -9.559089896950157E-1   -1.378385784298352E-2
 1.238000000000000E+10  -9.521116429679823E-1    7.726738483808054E-2
 1.239000000000000E+10  -9.394484091606380E-1    1.704855047328202E-1
 1.240000000000000E+10  -9.180990964591582E-1    2.638841138369875E-1
 1.241000000000000E+10  -8.878481627577717E-1    3.560816030074817E-1
 1.242000000000000E+10  -8.486188196519439E-1    4.455669337990305E-1
 1.243000000000000E+10  -8.002760117132367E-1    5.308077835110507E-1
 1.244000000000000E+10  -7.434887999720718E-1    6.105524391320999E-1
 1.245000000000000E+10  -6.776499567879076E-1    6.837052547747402E-1
 1.246000000000000E+10  -6.026578477737828E-1    7.496888464871111E-1
 1.247000000000000E+10  -5.195223422451979E-1    8.078200387917803E-1
 1.248000000000000E+10  -4.282655260722014E-1    8.575009036128100E-1
 1.249000000000000E+10  -3.296996959276830E-1    8.979909972662377E-1
 1.250000000000000E+10  -2.257271660255240E-1    9.281385573378167E-1
