#  HZ   S   RI   R     50.00 
! Rohde & Schwarz Vector Network Analyzer 
! Rohde-Schwarz,ZNA43-4Port,1332450044101932,2.92
! Created: UTC 6/1/2026, 11:34:29 AM
! freq[Hz]                re:S11                  im:S11
 8.000000000000000E9     5.948196407076256E-1    7.751148117286730E-1
 8.010000000000000E9     6.623093997029241E-1    7.189002305609028E-1
 8.020000000000000E9     7.258493742863853E-1    6.542723741208487E-1
 8.030000000000000E9     7.848171230563870E-1    5.808660130252470E-1
 8.040000000000000E9     8.382148509468919E-1    4.979054070331692E-1
 8.050000000000000E9     8.848867556430776E-1    4.058249137915078E-1
 8.060000000000000E9     9.230647733021837E-1    3.050018193271221E-1
 8.070000000000000E9     9.514332291387915E-1    1.960753205583917E-1
 8.080000000000000E9     9.679102043746862E-1    7.993696471750020E-2
 8.090000000000000E9     9.704269173515955E-1   -4.201868228000578E-2
 8.100000000000000E9     9.562112245885721E-1   -1.690364453763934E-1
 8.110000000000000E9     9.226518596810712E-1   -2.993148959496714E-1
 8.120000000000000E9     8.673785520474866E-1   -4.302098151418851E-1
 8.130000000000000E9     7.876716697998312E-1   -5.580497129986424E-1
 8.140000000000000E9     6.821541012795291E-1   -6.782325657618532E-1
 8.150000000000000E9     5.504139031468684E-1   -7.848285746806319E-1
 8.160000000000000E9     3.944536564829353E-1   -8.710631246398862E-1
 8.170000000000000E9     2.176048311870737E-1   -9.295522332774501E-1
 8.180000000000000E9     2.615404160998074E-2   -9.535902303340249E-1
 8.190000000000000E9    -1.719940231389791E-1   -9.372758496546695E-1
 8.200000000000000E9    -3.663795426707526E-1   -8.766995933981835E-1
 8.210000000000000E9    -5.431180148843932E-1   -7.692424706951220E-1
 8.220000000000000E9    -6.761214882895565E-1   -6.296727060713085E-1
 8.230000000000000E9    -7.954751626362379E-1   -4.895559406079112E-1
 8.240000000000000E9    -8.912296450297317E-1   -3.094234037144981E-1
 8.250000000000000E9    -9.406004597087604E-1   -1.145294114080022E-1
 8.260000000000000E9    -9.477994801584353E-1    7.890554218353207E-2
 8.270000000000000E9    -9.181737273055498E-1    2.613206016090742E-1
 8.280000000000000E9    -8.579295099647849E-1    4.262885957507893E-1
 8.290000000000000E9    -7.730110470076385E-1    5.701030715021286E-1
 8.300000000000000E9    -6.687629517461346E-1    6.912452378057465E-1
 8.310000000000000E9    -5.505137676548604E-1    7.889489148750062E-1
 8.320000000000000E9    -4.231001811969223E-1    8.637167311964998E-1
 8.330000000000000E9    -2.910135475728509E-1    9.166974356902149E-1
 8.340000000000000E9    -1.580301365430799E-1    9.493910193048885E-1
 8.350000000000000E9    -2.747207737063899E-2    9.635906362471227E-1
 8.360000000000000E9     9.803897226912137E-2    9.614719811277257E-1
 8.370000000000000E9     2.172072725423629E-1    9.446103528038901E-1
 8.380000000000000E9     3.285629292142375E-1    9.141496153639034E-1
 8.390000000000000E9     4.319933831670389E-1    8.715059761216676E-1
 8.400000000000000E9     5.271959640251764E-1    8.176453530132872E-1
 8.410000000000000E9     6.141310089872296E-1    7.537270486978537E-1
 8.420000000000000E9     6.925101305581215E-1    6.806808427317791E-1
 8.430000000000000E9     7.624504744005497E-1    5.997830498873180E-1
 8.440000000000000E9     8.232839044539060E-1    5.126320183470364E-1
 8.450000000000000E9     8.744963239647325E-1    4.206686891373996E-1
 8.460000000000000E9     9.154671430261391E-1    3.251844034451642E-1
 8.470000000000000E9     9.460961757401123E-1    2.273154456953926E-1
 8.480000000000000E9     9.657857532213354E-1    1.280873277731170E-1
 8.490000000000000E9     9.745331828311349E-1    2.780811940467342E-2
 8.500000000000000E9     9.722644381860129E-1   -7.298386349775508E-2
 8.510000000000000E9     9.579274826126618E-1   -1.744378316220148E-1
 8.520000000000000E9     9.320779731822104E-1   -2.759580227589299E-1
 8.530000000000000E9     8.946553441300044E-1   -3.758055277696658E-1
 8.540000000000000E9     8.462257147761796E-1   -4.729031596342548E-1
 8.550000000000000E9     7.872303517998344E-1   -5.656519572509210E-1
 8.560000000000000E9     7.179889892823248E-1   -6.519900039828067E-1
 8.570000000000000E9     6.396210190199775E-1   -7.303580573704056E-1
 8.580000000000000E9     5.524711708165830E-1   -7.994639012504586E-1
 8.590000000000000E9     4.573005445325873E-1   -8.576681752877310E-1
 8.600000000000000E9     3.545002218983557E-1   -9.041217634997274E-1
 8.610000000000000E9     2.450093791711686E-1   -9.380585358203322E-1
 8.620000000000000E9     1.299431470379208E-1   -9.586726692191713E-1
 8.630000000000000E9     1.086681782370684E-2   -9.652189370219602E-1
 8.640000000000000E9    -1.101179975791093E-1   -9.577521886976189E-1
 8.650000000000000E9    -2.304128708711791E-1   -9.358080718067051E-1
 8.660000000000000E9    -3.479501925948685E-1   -8.994592193568530E-1
 8.670000000000000E9    -4.598762060955692E-1   -8.490896467276495E-1
 8.680000000000000E9    -5.639683975711640E-1   -7.851421065970492E-1
 8.690000000000000E9    -6.585264170731350E-1   -7.083178716502025E-1
 8.700000000000000E9    -7.421807030040137E-1   -6.194539639733039E-1
 8.710000000000000E9    -8.134803361040988E-1   -5.198264189911820E-1
 8.720000000000000E9    -8.717846110218592E-1   -4.106611314724579E-1
 8.730000000000000E9    -9.160187020211434E-1   -2.942398126492131E-1
 8.740000000000000E9    -9.455532922460363E-1   -1.730222502739335E-1
 8.750000000000000E9    -9.600101849243928E-1   -4.948671146579230E-2
 8.760000000000000E9    -9.596418471474377E-1    7.346888044841500E-2
 8.770000000000000E9    -9.444354644813914E-1    1.935700819581496E-1
 8.780000000000000E9    -9.149389159051907E-1    3.090565015755578E-1
 8.790000000000000E9    -8.717108176456342E-1    4.183218321528966E-1
 8.800000000000000E9    -8.154204640260933E-1    5.200987620185412E-1
 8.810000000000000E9    -7.468754529753904E-1    6.135200157604839E-1
 8.820000000000000E9    -6.673082325014866E-1    6.977545350992523E-1
 8.830000000000000E9    -5.780614595715577E-1    7.720182780672098E-1
 8.840000000000000E9    -4.807099590824320E-1    8.355118306834590E-1
 8.850000000000000E9    -3.772252258555195E-1    8.874292021498011E-1
 8.860000000000000E9    -2.694182835244488E-1    9.267694697880031E-1
 8.870000000000000E9    -1.590772620776356E-1    9.533950672244065E-1
 8.880000000000000E9    -4.804384285006033E-2    9.666437341901456E-1
 8.890000000000000E9     6.304497475336771E-2    9.663168752353087E-1
 8.900000000000000E9     1.729330857454221E-1    9.527013597492884E-1
 8.910000000000000E9     2.806201733717024E-1    9.257373445516683E-1
 8.920000000000000E9     3.856223810187483E-1    8.855747018623878E-1
 8.930000000000000E9     4.869633895101201E-1    8.327703519416425E-1
 8.940000000000000E9     5.827984756992165E-1    7.677672638499533E-1
 8.950000000000000E9     6.713937537971638E-1    6.912950488209380E-1
 8.960000000000000E9     7.512972143210608E-1    6.047187122982002E-1
 8.970000000000000E9     8.201753740406813E-1    5.086752351564665E-1
 8.980000000000000E9     8.769247625319719E-1    4.042359737545156E-1
 8.990000000000000E9     9.200736159361084E-1    2.926787343355651E-1
 9.000000000000000E9     9.485418092525425E-1    1.746996622919472E-1
 9.010000000000000E9     9.611700250951971E-1    5.167858647501326E-2
 9.020000000000000E9     9.570827101734278E-1   -7.517721194698192E-2
 9.030000000000000E9     9.356797765007447E-1   -2.039082459213359E-1
 9.040000000000000E9     8.962470054992254E-1   -3.318467976905084E-1
 9.050000000000000E9     8.388238276617617E-1   -4.558888855816756E-1
 9.060000000000000E9     7.636954010353419E-1   -5.722941574665664E-1
 9.070000000000000E9     6.719482675410178E-1   -6.780812380700126E-1
 9.080000000000000E9     5.645829988914495E-1   -7.695007691694000E-1
 9.090000000000000E9     4.440098487550400E-1   -8.439274651788986E-1
 9.100000000000000E9     3.125548944574268E-1   -8.993116691701241E-1
 9.110000000000000E9     1.726140988000154E-1   -9.339811432400871E-1
 9.120000000000000E9     2.747175444662962E-2   -9.468226523365731E-1
 9.130000000000000E9    -1.192896159687215E-1   -9.374126947125940E-1
 9.140000000000000E9    -2.638670984413253E-1   -9.059261729271880E-1
 9.150000000000000E9    -4.018576183980824E-1   -8.533199399775504E-1
 9.160000000000000E9    -5.291257700729519E-1   -7.811797574555636E-1
 9.170000000000000E9    -6.420367314572053E-1   -6.924468679716353E-1
 9.180000000000000E9    -7.381205893650545E-1   -5.897149912754013E-1
 9.190000000000000E9    -8.156982970787768E-1   -4.769867968023604E-1
 9.200000000000000E9    -8.744033542668579E-1   -3.575589524422997E-1
 9.210000000000000E9    -9.151598260213641E-1   -2.340045052787009E-1
 9.220000000000000E9    -9.384366761534313E-1   -1.086671317132627E-1
 9.230000000000000E9    -9.447903794118149E-1    1.550185292521747E-2
 9.240000000000000E9    -9.361107412586518E-1    1.370661995144953E-1
 9.250000000000000E9    -9.130976485021129E-1    2.539140769885079E-1
 9.260000000000000E9    -8.771606177459615E-1    3.636512576647062E-1
 9.270000000000000E9    -8.300970564655590E-1    4.648654294368534E-1
 9.280000000000000E9    -7.734047757091104E-1    5.565578459589258E-1
 9.290000000000000E9    -7.088339717269045E-1    6.380960796476013E-1
 9.300000000000000E9    -6.381064778408426E-1    7.093882303107090E-1
 9.310000000000000E9    -5.624769983660718E-1    7.711304569590923E-1
 9.320000000000000E9    -4.832309946238587E-1    8.235111332958095E-1
 9.330000000000000E9    -4.012361026573784E-1    8.672892098596114E-1
 9.340000000000000E9    -3.172715597747096E-1    9.025856951143818E-1
 9.350000000000000E9    -2.322270335077194E-1    9.298705217617078E-1
 9.360000000000000E9    -1.466729229936696E-1    9.490762120303329E-1
 9.370000000000000E9    -6.150561070682047E-2    9.602449963821662E-1
 9.380000000000000E9     2.234526722242662E-2    9.635524305066754E-1
 9.390000000000000E9     1.042415418448892E-1    9.591674301271592E-1
 9.400000000000000E9     1.835980242627284E-1    9.478110533112100E-1
 9.410000000000000E9     2.601714064339086E-1    9.299639197692312E-1
 9.420000000000000E9     3.337379166049170E-1    9.063104243487444E-1
 9.430000000000000E9     4.044571298070261E-1    8.774833910991794E-1
 9.440000000000000E9     4.724229102462242E-1    8.435628096347150E-1
 9.450000000000000E9     5.374651716300965E-1    8.046213041068629E-1
 9.460000000000000E9     5.994902086009337E-1    7.608627178095998E-1
 9.470000000000000E9     6.581199416621960E-1    7.122755508026588E-1
 9.480000000000000E9     7.126528739092892E-1    6.588462678912392E-1
 9.490000000000000E9     7.627929037343899E-1    6.008342194193749E-1
 9.500000000000000E9     8.080951205111654E-1    5.388023437678326E-1
 9.510000000000000E9     8.481481430407927E-1    4.730490622034292E-1
 9.520000000000000E9     8.828705644800764E-1    4.038486111471777E-1
 9.530000000000000E9     9.123536770048618E-1    3.318335316050897E-1
 9.540000000000000E9     9.364717286077858E-1    2.571988686817810E-1
 9.550000000000000E9     9.548715627699111E-1    1.799150807602589E-1
 9.560000000000000E9     9.671735759113432E-1    9.998811505372145E-2
 9.570000000000000E9     9.726787062790996E-1    1.747994470914583E-2
 9.580000000000000E9     9.709320165134092E-1   -6.749141330146671E-2
 9.590000000000000E9     9.607865850793913E-1   -1.542530729087724E-1
 9.600000000000000E9     9.418517090658536E-1   -2.425542262417545E-1
 9.610000000000000E9     9.134053968248853E-1   -3.314078092022462E-1
 9.620000000000000E9     8.751400772855683E-1   -4.196888897807204E-1
 9.630000000000000E9     8.267892893110980E-1   -5.066311381413581E-1
 9.640000000000000E9     7.681664922162620E-1   -5.906057130490256E-1
 9.650000000000000E9     6.988564004757214E-1   -6.708810247672550E-1
 9.660000000000000E9     6.176664958725542E-1   -7.458925474968670E-1
 9.670000000000000E9     5.245683400913931E-1   -8.133874221384376E-1
 9.680000000000000E9     4.189603486009486E-1   -8.709783697148445E-1
 9.690000000000000E9     3.014774987919790E-1   -9.160583807254554E-1
 9.700000000000000E9     1.727722682050206E-1   -9.456780308311568E-1
 9.710000000000000E9     3.498266938447109E-2   -9.572261324627720E-1
 9.720000000000000E9    -1.084589536850156E-1   -9.479729762435030E-1
 9.730000000000000E9    -2.541069657701596E-1   -9.159150875622867E-1
 9.740000000000000E9    -3.974721618657502E-1   -8.598719859173877E-1
 9.750000000000000E9    -5.334900065680317E-1   -7.792772513754833E-1
 9.760000000000000E9    -6.567495172633651E-1   -6.746010051462524E-1
 9.770000000000000E9    -7.620046916901639E-1   -5.478437034035926E-1
 9.780000000000000E9    -8.437647335723770E-1   -4.018818031115816E-1
 9.790000000000000E9    -8.982972975520770E-1   -2.423015960891428E-1
 9.800000000000000E9    -9.227131666133106E-1   -7.546287108431343E-2
 9.810000000000000E9    -9.169938986394370E-1    9.137353919700757E-2
 9.820000000000000E9    -8.828827223410445E-1    2.510640729413626E-1
 9.830000000000000E9    -8.240924405417529E-1    3.986610477848485E-1
 9.840000000000000E9    -7.447009666633116E-1    5.296138309180277E-1
 9.850000000000000E9    -6.492831787527866E-1    6.416310570908327E-1
 9.860000000000000E9    -5.417724944326493E-1    7.333303832504545E-1
 9.870000000000000E9    -4.262431455791953E-1    8.045325706782193E-1
 9.880000000000000E9    -3.063977089876327E-1    8.557159998869190E-1
 9.890000000000000E9    -1.855587654950133E-1    8.879177127846172E-1
 9.900000000000000E9    -6.682478381094899E-2    9.030961282504680E-1
 9.910000000000000E9     4.754269021682608E-2    9.033458523919987E-1
 9.920000000000000E9     1.555919163175865E-1    8.910224252028404E-1
 9.930000000000000E9     2.558506067395827E-1    8.680943028367476E-1
 9.940000000000000E9     3.483178234814845E-1    8.364975825145377E-1
 9.950000000000000E9     4.325382147433334E-1    7.973416684533635E-1
 9.960000000000000E9     5.086433984970545E-1    7.517678662632239E-1
 9.970000000000000E9     5.772029390197191E-1    7.003841947269868E-1
 9.980000000000000E9     6.386461274818376E-1    6.440947143055394E-1
 9.990000000000000E9     6.930219930047332E-1    5.835547452392152E-1
 1.000000000000000E+10   7.411792072479652E-1    5.200829428364745E-1
 1.001000000000000E+10   7.825410967519610E-1    4.541564719639377E-1
 1.002000000000000E+10   8.180479748616858E-1    3.872101609361430E-1
 1.003000000000000E+10   8.477684753969768E-1    3.202815652836447E-1
 1.004000000000000E+10   8.719836559555268E-1    2.538201319840916E-1
 1.005000000000000E+10   8.907058836171600E-1    1.879764963067794E-1
 1.006000000000000E+10   9.042499491569083E-1    1.227929378120817E-1
 1.007000000000000E+10   9.122312035858402E-1    5.770392324355876E-2
 1.008000000000000E+10   9.148694257976131E-1   -7.528450801820677E-3
 1.009000000000000E+10   9.122104005589136E-1   -7.328328500293714E-2
 1.010000000000000E+10   9.042087695996480E-1   -1.393870093936271E-1
 1.011000000000000E+10   8.912454445815692E-1   -2.059220244059802E-1
 1.012000000000000E+10   8.737569956795681E-1   -2.717937745638789E-1
 1.013000000000000E+10   8.520589837265495E-1   -3.366593076772804E-1
 1.014000000000000E+10   8.266753961657849E-1   -3.996382789331674E-1
 1.015000000000000E+10   7.977387211041940E-1   -4.600626537064406E-1
 1.016000000000000E+10   7.649147722541173E-1   -5.177584281305012E-1
 1.017000000000000E+10   7.280660574911335E-1   -5.726110120101058E-1
 1.018000000000000E+10   6.865942718587184E-1   -6.243934675107597E-1
 1.019000000000000E+10   6.400048902938623E-1   -6.732791034908628E-1
 1.020000000000000E+10   5.879395066138428E-1   -7.193150825739939E-1
 1.021000000000000E+10   5.300717853048204E-1   -7.624561488998686E-1
 1.022000000000000E+10   4.664334655310634E-1   -8.022562076112191E-1
 1.023000000000000E+10   3.979250373277683E-1   -8.381978742919161E-1
 1.024000000000000E+10   3.253178318077564E-1   -8.696386179828358E-1
 1.025000000000000E+10   2.494437746333370E-1   -8.957628096022354E-1
 1.026000000000000E+10   1.712473140428976E-1   -9.158311466925989E-1
 1.027000000000000E+10   9.136587121640107E-2   -9.291655781503763E-1
 1.028000000000000E+10   9.611618950092923E-3   -9.350828499679059E-1
 1.029000000000000E+10  -7.391006361849839E-2   -9.327354774362694E-1
 1.030000000000000E+10  -1.596212264373051E-1   -9.216195685929592E-1
 1.031000000000000E+10  -2.475244989683977E-1   -9.007471674743360E-1
 1.032000000000000E+10  -3.370889669783304E-1   -8.695197245284336E-1
 1.033000000000000E+10  -4.268767954783363E-1   -8.275925121589780E-1
 1.034000000000000E+10  -5.154799684483702E-1   -7.749728699030956E-1
 1.035000000000000E+10  -6.009930546087298E-1   -7.113407950917960E-1
 1.036000000000000E+10  -6.809876711543956E-1   -6.371013343175481E-1
 1.037000000000000E+10  -7.532990911870018E-1   -5.525561268087806E-1
 1.038000000000000E+10  -8.158900985737531E-1   -4.580908329854839E-1
 1.039000000000000E+10  -8.666949420273475E-1   -3.538015672854194E-1
 1.040000000000000E+10  -9.041543500902612E-1   -2.405242469283686E-1
 1.041000000000000E+10  -9.268571490387092E-1   -1.189024486972434E-1
 1.042000000000000E+10  -9.331591794152836E-1    9.318917347817838E-3
 1.043000000000000E+10  -9.215378808956163E-1    1.420343795973835E-1
 1.044000000000000E+10  -8.913294184162970E-1    2.757479061493762E-1
 1.045000000000000E+10  -8.421318137860651E-1    4.061353627572026E-1
 1.046000000000000E+10  -7.746457589193964E-1    5.292086729031722E-1
 1.047000000000000E+10  -6.901986295251720E-1    6.409235940224836E-1
 1.048000000000000E+10  -5.903976091608694E-1    7.381809570666618E-1
 1.049000000000000E+10  -4.771089552278817E-1    8.189765349833733E-1
 1.050000000000000E+10  -3.530839030168636E-1    8.811320653275370E-1
 1.051000000000000E+10  -2.207658088997883E-1    9.239621502809989E-1
 1.052000000000000E+10  -8.308332032528265E-2    9.469110179935381E-1
 1.053000000000000E+10   5.640659820338188E-2    9.499850625115397E-1
 1.054000000000000E+10   1.935739071589048E-1    9.337261493768290E-1
 1.055000000000000E+10   3.249551479838383E-1    8.997517611379514E-1
 1.056000000000000E+10   4.468792987083929E-1    8.499183379964536E-1
 1.057000000000000E+10   5.575950835550992E-1    7.861519364563802E-1
 1.058000000000000E+10   6.551554806105698E-1    7.107152865091081E-1
 1.059000000000000E+10   7.392271383555894E-1    6.258511734562993E-1
 1.060000000000000E+10   8.098477005577870E-1    5.327107637536727E-1
 1.061000000000000E+10   8.672356152756115E-1    4.330444253734771E-1
 1.062000000000000E+10   9.119413450722881E-1    3.285203861769903E-1
 1.063000000000000E+10   9.440951800952664E-1    2.213333048686068E-1
 1.064000000000000E+10   9.645804369617487E-1    1.132094734941087E-1
 1.065000000000000E+10   9.731448054694797E-1    6.065793670147737E-3
 1.066000000000000E+10   9.706145604488391E-1   -9.801211887809218E-2
 1.067000000000000E+10   9.575443840140426E-1   -1.973165988786753E-1
 1.068000000000000E+10   9.345549386528370E-1   -2.914364768116895E-1
 1.069000000000000E+10   9.025449499934548E-1   -3.798828738690631E-1
 1.070000000000000E+10   8.619500207589895E-1   -4.629304355641543E-1
 1.071000000000000E+10   8.130806270063398E-1   -5.411168113298617E-1
 1.072000000000000E+10   7.570748200642564E-1   -6.142722307832559E-1
 1.073000000000000E+10   6.942065676842479E-1   -6.823814061755245E-1
 1.074000000000000E+10   6.260517827066443E-1   -7.446983137033897E-1
 1.075000000000000E+10   5.531251863048569E-1   -8.006373142902369E-1
 1.076000000000000E+10   4.768248862723352E-1   -8.496174804704429E-1
 1.077000000000000E+10   3.977823351908116E-1   -8.905302758986626E-1
 1.078000000000000E+10   3.175828770084418E-1   -9.232390784829310E-1
 1.079000000000000E+10   2.361154222886943E-1   -9.471391790600112E-1
 1.080000000000000E+10   1.536813729138201E-1   -9.627993244289510E-1
 1.081000000000000E+10   6.983521437883584E-2   -9.702587626444021E-1
 1.082000000000000E+10  -1.489988659748449E-2   -9.698583973719302E-1
 1.083000000000000E+10  -1.010318287312767E-1   -9.619186978768384E-1
 1.084000000000000E+10  -1.876222913719307E-1   -9.463422255958981E-1
 1.085000000000000E+10  -2.738499022341424E-1   -9.237889657254238E-1
 1.086000000000000E+10  -3.585959155560786E-1   -8.937743929221313E-1
 1.087000000000000E+10  -4.401240393738795E-1   -8.567191838697684E-1
 1.088000000000000E+10  -5.172187448916993E-1   -8.130342011466996E-1
 1.089000000000000E+10  -5.890605472226010E-1   -7.624119565283752E-1
 1.090000000000000E+10  -6.548904572001051E-1   -7.052747055799329E-1
 1.091000000000000E+10  -7.146010160800051E-1   -6.416389867009651E-1
 1.092000000000000E+10  -7.682909559522124E-1   -5.718096041876342E-1
 1.093000000000000E+10  -8.159468554920321E-1   -4.955322122537653E-1
 1.094000000000000E+10  -8.573606049658695E-1   -4.133790210973079E-1
 1.095000000000000E+10  -8.918949539807824E-1   -3.257590463742495E-1
 1.096000000000000E+10  -9.187012485888387E-1   -2.337292762233740E-1
 1.097000000000000E+10  -9.370399428799352E-1   -1.384489133296367E-1
 1.098000000000000E+10  -9.458443875253111E-1   -4.164845618836363E-2
 1.099000000000000E+10  -9.446383744162570E-1    5.511109801570128E-2
 1.100000000000000E+10  -9.331834856227250E-1    1.507195033181480E-1
 1.101000000000000E+10  -9.116319545704104E-1    2.442288115039831E-1
 1.102000000000000E+10  -8.800281058776436E-1    3.353050027974884E-1
 1.103000000000000E+10  -8.385118167197561E-1    4.236747758451277E-1
 1.104000000000000E+10  -7.873424165381974E-1    5.085224143289617E-1
 1.105000000000000E+10  -7.267414644807255E-1    5.892521358147250E-1
 1.106000000000000E+10  -6.572027830117240E-1    6.645368818364084E-1
 1.107000000000000E+10  -5.792638436204161E-1    7.328749733466127E-1
 1.108000000000000E+10  -4.941347798486587E-1    7.930883228924572E-1
 1.109000000000000E+10  -4.031418789632627E-1    8.432115097998708E-1
 1.110000000000000E+10  -3.072597780237803E-1    8.825863497482733E-1
 1.111000000000000E+10  -2.081689239202847E-1    9.103525261231712E-1
 1.112000000000000E+10  -1.070574664840951E-1    9.268564911695146E-1
 1.113000000000000E+10  -4.945060868427607E-3    9.320753844689410E-1
 1.114000000000000E+10   9.743703407288429E-2    9.263891813272901E-1
 1.115000000000000E+10   1.992273276403839E-1    9.099056009540272E-1
 1.116000000000000E+10   2.992449048241769E-1    8.830346802563930E-1
 1.117000000000000E+10   3.963307466025213E-1    8.456787872462312E-1
 1.118000000000000E+10   4.885309317582276E-1    7.979215978775959E-1
 1.119000000000000E+10   5.743521571198029E-1    7.406350006573300E-1
 1.120000000000000E+10   6.525197134604316E-1    6.748393529748501E-1
 1.121000000000000E+10   7.220506318343566E-1    6.011339516465647E-1
 1.122000000000000E+10   7.824695852177342E-1    5.206999581948050E-1
 1.123000000000000E+10   8.335734008780222E-1    4.344493850816137E-1
 1.124000000000000E+10   8.754641711062401E-1    3.434796487183526E-1
 1.125000000000000E+10   9.079618149190404E-1    2.485171208537118E-1
 1.126000000000000E+10   9.307282955136074E-1    1.507581750019970E-1
 1.127000000000000E+10   9.437099657998642E-1    5.089358729791420E-2
 1.128000000000000E+10   9.463661096318559E-1   -4.948618759813050E-2
 1.129000000000000E+10   9.382890585957839E-1   -1.490357480439815E-1
 1.130000000000000E+10   9.197253112678060E-1   -2.466098158239606E-1
 1.131000000000000E+10   8.907104497345564E-1   -3.411658242386993E-1
 1.132000000000000E+10   8.520671469745440E-1   -4.311770597423261E-1
 1.133000000000000E+10   8.042503437852686E-1   -5.162371679494712E-1
 1.134000000000000E+10   7.480868735496706E-1   -5.958847016765740E-1
 1.135000000000000E+10   6.841362445153951E-1   -6.699561432071804E-1
 1.136000000000000E+10   6.128395515006428E-1   -7.375452890892185E-1
 1.137000000000000E+10   5.345795566283320E-1   -7.981888586612074E-1
 1.138000000000000E+10   4.499841178398509E-1   -8.510336777710356E-1
 1.139000000000000E+10   3.599195023548483E-1   -8.947492687195386E-1
 1.140000000000000E+10   2.654821573881546E-1   -9.284665936678163E-1
 1.141000000000000E+10   1.675776628865827E-1   -9.518731736537512E-1
 1.142000000000000E+10   6.754521366244882E-2   -9.641748379031260E-1
 1.143000000000000E+10  -3.322792473425890E-2   -9.658679470295010E-1
 1.144000000000000E+10  -1.337555755216296E-1   -9.572874572146532E-1
 1.145000000000000E+10  -2.329652262638949E-1   -9.383464155013155E-1
 1.146000000000000E+10  -3.308593307444668E-1   -9.091343782605116E-1
 1.147000000000000E+10  -4.257708770621455E-1   -8.699431959675995E-1
 1.148000000000000E+10  -5.163540350250476E-1   -8.199723181358273E-1
 1.149000000000000E+10  -6.017976111953147E-1   -7.604068306409903E-1
 1.150000000000000E+10  -6.803040818970378E-1   -6.904499611829360E-1
 1.151000000000000E+10  -7.506080724032531E-1   -6.118290931014423E-1
 1.152000000000000E+10  -8.119411738807010E-1   -5.254817674999658E-1
 1.153000000000000E+10  -8.637475862893788E-1   -4.324120119369710E-1
 1.154000000000000E+10  -9.048472187053199E-1   -3.339310328698952E-1
 1.155000000000000E+10  -9.351796459097566E-1   -2.312046008118493E-1
 1.156000000000000E+10  -9.542364048969232E-1   -1.258742012059855E-1
 1.157000000000000E+10  -9.620981244343695E-1   -1.854401667362402E-2
 1.158000000000000E+10  -9.580095013723675E-1    8.954371019516520E-2
 1.159000000000000E+10  -9.414360693615982E-1    1.967797210950731E-1
 1.160000000000000E+10  -9.120570490227656E-1    3.022043185331506E-1
 1.161000000000000E+10  -8.703957896415127E-1    4.036952975604438E-1
 1.162000000000000E+10  -8.165024231399753E-1    4.999797241591474E-1
 1.163000000000000E+10  -7.520618637505817E-1    5.891043888912418E-1
 1.164000000000000E+10  -6.783167204468350E-1    6.700682248265363E-1
 1.165000000000000E+10  -5.966964046484688E-1    7.421723191834879E-1
 1.166000000000000E+10  -5.087157178146401E-1    8.043100281550662E-1
 1.167000000000000E+10  -4.152570771973452E-1    8.561551873055240E-1
 1.168000000000000E+10  -3.171910182577856E-1    8.969241375065619E-1
 1.169000000000000E+10  -2.156494909659725E-1    9.260383318277341E-1
 1.170000000000000E+10  -1.114738888665438E-1    9.430541534295452E-1
 1.171000000000000E+10  -6.486079586206873E-3    9.479723732125976E-1
 1.172000000000000E+10   9.804089384702266E-2    9.409874526926117E-1
 1.173000000000000E+10   2.008280775228887E-1    9.226046991578544E-1
 1.174000000000000E+10   3.003258372752353E-1    8.935120938738222E-1
 1.175000000000000E+10   3.952697628023985E-1    8.547180743116123E-1
 1.176000000000000E+10   4.841102673317162E-1    8.072186092566581E-1
 1.177000000000000E+10   5.661344792925422E-1    7.520482205245179E-1
 1.178000000000000E+10   6.406959679608336E-1    6.899685007102483E-1
 1.179000000000000E+10   7.071826597419806E-1    6.215339790701894E-1
 1.180000000000000E+10   7.654173189985432E-1    5.474660976470157E-1
 1.181000000000000E+10   8.149846864298537E-1    4.682149964597852E-1
 1.182000000000000E+10   8.558554368643929E-1    3.844124163320550E-1
 1.183000000000000E+10   8.880101503200127E-1    2.975533934790023E-1
 1.184000000000000E+10   9.118748786543490E-1    2.085156667493336E-1
 1.185000000000000E+10   9.273923544769617E-1    1.187427774765031E-1
 1.186000000000000E+10   9.349486301505469E-1    2.952199021649752E-2
 1.187000000000000E+10   9.345564785180719E-1   -5.887091061917549E-2
 1.188000000000000E+10   9.263204852105238E-1   -1.454065827284179E-1
 1.189000000000000E+10   9.100793705722315E-1   -2.297098440678278E-1
 1.190000000000000E+10   8.858091417229266E-1   -3.113737779367035E-1
 1.191000000000000E+10   8.535990031650137E-1   -3.897742071819208E-1
 1.192000000000000E+10   8.141471759937414E-1   -4.647452754722740E-1
 1.193000000000000E+10   7.677433938082628E-1   -5.359016754650456E-1
 1.194000000000000E+10   7.154084059120003E-1   -6.028270871626736E-1
 1.195000000000000E+10   6.579114431491279E-1   -6.650689904336149E-1
 1.196000000000000E+10   5.961962528863570E-1   -7.220766272334550E-1
 1.197000000000000E+10   5.309830113028708E-1   -7.736745184032084E-1
 1.198000000000000E+10   4.628283868277409E-1   -8.187993402861848E-1
 1.199000000000000E+10   3.918340948650982E-1   -8.574624944993471E-1
 1.200000000000000E+10   3.184175898780061E-1   -8.894068234716155E-1
 1.201000000000000E+10   2.419844700600903E-1   -9.138923484790216E-1
 1.202000000000000E+10   1.628234460083086E-1   -9.314448089898790E-1
 1.203000000000000E+10   8.134092859562038E-2   -9.415363543023632E-1
 1.204000000000000E+10  -2.185574219440262E-3   -9.441771884860639E-1
 1.205000000000000E+10  -8.697423662067981E-2   -9.395836960884641E-1
 1.206000000000000E+10  -1.722836756065276E-1   -9.281075567622177E-1
 1.207000000000000E+10  -2.565050228753075E-1   -9.097567672827511E-1
 1.208000000000000E+10  -3.390018424553241E-1   -8.845429398629477E-1
 1.209000000000000E+10  -4.187005892898356E-1   -8.524462582104438E-1
 1.210000000000000E+10  -4.948885692169610E-1   -8.133907199744228E-1
 1.211000000000000E+10  -5.671173301575831E-1   -7.667173506811131E-1
 1.212000000000000E+10  -6.349660391625407E-1   -7.127682573198355E-1
 1.213000000000000E+10  -6.980909239830306E-1   -6.510752345930824E-1
 1.214000000000000E+10  -7.558568970979175E-1   -5.822471781151553E-1
 1.215000000000000E+10  -8.082150032017402E-1   -5.065051895981376E-1
 1.216000000000000E+10  -8.542217878412287E-1   -4.248719760985398E-1
 1.217000000000000E+10  -8.932270234895674E-1   -3.382048897908199E-1
 1.218000000000000E+10  -9.242108439817897E-1   -2.474379981669918E-1
 1.219000000000000E+10  -9.462578839455270E-1   -1.534806434787023E-1
 1.220000000000000E+10  -9.586144954484130E-1   -5.728692047193867E-2
 1.221000000000000E+10  -9.603937760243600E-1    4.029613736153219E-2
 1.222000000000000E+10  -9.506875117089683E-1    1.389554538747008E-1
 1.223000000000000E+10  -9.296938397195925E-1    2.374660902689336E-1
 1.224000000000000E+10  -8.974169197093737E-1    3.358052782719483E-1
 1.225000000000000E+10  -8.533825155399830E-1    4.322167778895195E-1
 1.226000000000000E+10  -7.981436529024548E-1    5.252875957407571E-1
 1.227000000000000E+10  -7.329579479342980E-1    6.126290624443259E-1
 1.228000000000000E+10  -6.583867098397322E-1    6.930656066922832E-1
 1.229000000000000E+10  -5.753420341061612E-1    7.647529322329417E-1
 1.230000000000000E+10  -4.849324089467519E-1    8.260176097629585E-1
 1.231000000000000E+10  -3.875003685922596E-1    8.755789250130270E-1
 1.232000000000000E+10  -2.840278844405367E-1    9.126988126252795E-1
 1.233000000000000E+10  -1.759625920322920E-1    9.367173956467045E-1
 1.234000000000000E+10  -6.340388999065100E-2    9.472931306673563E-1
 1.235000000000000E+10   5.130419652016727E-2    9.437871370734198E-1
 1.236000000000000E+10   1.665192035985152E-1    9.269397919106754E-1
 1.237000000000000E+10   2.794390262068294E-1    8.962846750500020E-1
 1.238000000000000E+10   3.877300080978954E-1    8.534252157136621E-1
 1.239000000000000E+10   4.888114418158995E-1    7.984000779233618E-1
 1.240000000000000E+10   5.809980245691325E-1    7.330773732281489E-1
 1.241000000000000E+10   6.624863435296400E-1    6.581321040218928E-1
 1.242000000000000E+10   7.327549318065589E-1    5.744233736817618E-1
 1.243000000000000E+10   7.911327121243540E-1    4.832103306502963E-1
 1.244000000000000E+10   8.378058094823895E-1    3.855853575743703E-1
 1.245000000000000E+10   8.724676654148448E-1    2.831680150462297E-1
 1.246000000000000E+10   8.952765064279993E-1    1.774844195679299E-1
 1.247000000000000E+10   9.065109309525071E-1    7.081979295157616E-2
 1.248000000000000E+10   9.062103083062928E-1   -3.485153607972906E-2
 1.249000000000000E+10   8.948678963897896E-1   -1.376513218204761E-1
 1.250000000000000E+10   8.730092041055116E-1   -2.355118931375401E-1
