#  HZ   S   RI   R     50.00 
! Rohde & Schwarz Vector Network Analyzer 
! Rohde-Schwarz,ZNA43-4Port,1332450044101932,2.92
! Created: UTC 6/1/2026, 11:34:33 AM
! freq[Hz]                re:S11                  im:S11
 8.000000000000000E9     4.866332713715555E-1    8.479190644701099E-1
 8.010000000000000E9     5.571829826355643E-1    8.042120586870228E-1
 8.020000000000000E9     6.247857883553587E-1    7.530191186571897E-1
 8.030000000000000E9     6.891920703356976E-1    6.939026604384271E-1
 8.040000000000000E9     7.497791879211835E-1    6.262370780817720E-1
 8.050000000000000E9     8.057091083589359E-1    5.501752924856268E-1
 8.060000000000000E9     8.557110538629400E-1    4.660645398430730E-1
 8.070000000000000E9     8.989786448219451E-1    3.741713889061329E-1
 8.080000000000000E9     9.339100885072646E-1    2.751077055990744E-1
 8.090000000000000E9     9.589712644064305E-1    1.697179367078559E-1
 8.100000000000000E9     9.722863172076746E-1    5.797423453389004E-2
 8.110000000000000E9     9.717978423548335E-1   -5.939923999101315E-2
 8.120000000000000E9     9.556389588501517E-1   -1.811950395702436E-1
 8.130000000000000E9     9.210368187414946E-1   -3.060108697492177E-1
 8.140000000000000E9     8.661905597176195E-1   -4.316330359786182E-1
 8.150000000000000E9     7.892012957354418E-1   -5.548245191909263E-1
 8.160000000000000E9     6.895720020247953E-1   -6.712163373633816E-1
 8.170000000000000E9     5.668201971960467E-1   -7.755012870015457E-1
 8.180000000000000E9     4.225752358928717E-1   -8.618108150240862E-1
 8.190000000000000E9     2.591525103767102E-1   -9.238932564115681E-1
 8.200000000000000E9     8.103741840554583E-2   -9.557141922156542E-1
 8.210000000000000E9    -1.064002358179389E-1   -9.519292715034945E-1
 8.220000000000000E9    -2.947944490550889E-1   -9.088696352958923E-1
 8.230000000000000E9    -4.747592375116124E-1   -8.254802101952053E-1
 8.240000000000000E9    -6.359386606932047E-1   -7.035069267199175E-1
 8.250000000000000E9    -7.663172589056643E-1   -5.475576742155419E-1
 8.260000000000000E9    -8.480113282670239E-1   -3.742443334891048E-1
 8.270000000000000E9    -9.099692968601234E-1   -2.154704063541261E-1
 8.280000000000000E9    -9.480800390868777E-1   -3.121598097402809E-2
 8.290000000000000E9    -9.422066840113867E-1    1.529391514463220E-1
 8.300000000000000E9    -9.006189092123945E-1    3.251665801931263E-1
 8.310000000000000E9    -8.296761310530540E-1    4.803865745520819E-1
 8.320000000000000E9    -7.354511781501187E-1    6.153412861642883E-1
 8.330000000000000E9    -6.238396415051506E-1    7.281657249885723E-1
 8.340000000000000E9    -5.003133770197158E-1    8.183744345450663E-1
 8.350000000000000E9    -3.701457211673482E-1    8.862277149451969E-1
 8.360000000000000E9    -2.381499320858823E-1    9.329286907006161E-1
 8.370000000000000E9    -1.072208648678923E-1    9.599589664989754E-1
 8.380000000000000E9     1.991693570667406E-2    9.684050092157730E-1
 8.390000000000000E9     1.419301474367176E-1    9.600823163510234E-1
 8.400000000000000E9     2.578699510207900E-1    9.366502845848416E-1
 8.410000000000000E9     3.670646832272957E-1    8.992475101261646E-1
 8.420000000000000E9     4.691545769345736E-1    8.493318517646247E-1
 8.430000000000000E9     5.637664282687626E-1    7.885459308006006E-1
 8.440000000000000E9     6.500848474787764E-1    7.183900449140611E-1
 8.450000000000000E9     7.274341673233551E-1    6.406016385205096E-1
 8.460000000000000E9     7.948628682505610E-1    5.565109431741753E-1
 8.470000000000000E9     8.520982057809073E-1    4.677063023971502E-1
 8.480000000000000E9     8.984400222413095E-1    3.751777238361264E-1
 8.490000000000000E9     9.339008260633285E-1    2.795378600797662E-1
 8.500000000000000E9     9.584325142681619E-1    1.814787981452288E-1
 8.510000000000000E9     9.713251606619808E-1    8.032548921897829E-2
 8.520000000000000E9     9.730420221824356E-1   -2.316733094048808E-2
 8.530000000000000E9     9.632431461388103E-1   -1.276485042679030E-1
 8.540000000000000E9     9.422720397707048E-1   -2.320768368387588E-1
 8.550000000000000E9     9.104402505809874E-1   -3.350198965520416E-1
 8.560000000000000E9     8.675486715876283E-1   -4.346731832975188E-1
 8.570000000000000E9     8.143937661319978E-1   -5.293458685342263E-1
 8.580000000000000E9     7.510693761541153E-1   -6.176472041919858E-1
 8.590000000000000E9     6.780525507280675E-1   -6.979921886474192E-1
 8.600000000000000E9     5.953422484377360E-1   -7.694265537674031E-1
 8.610000000000000E9     5.035542758573467E-1   -8.311062901140294E-1
 8.620000000000000E9     4.033255644483777E-1   -8.821294815366104E-1
 8.630000000000000E9     2.955414081597165E-1   -9.215574879417928E-1
 8.640000000000000E9     1.819953004913191E-1   -9.489179482489769E-1
 8.650000000000000E9     6.465096231353955E-2   -9.632298970907507E-1
 8.660000000000000E9    -5.469941225953225E-2   -9.640412172570635E-1
 8.670000000000000E9    -1.735309401536999E-1   -9.507925517030105E-1
 8.680000000000000E9    -2.894747515630682E-1   -9.233037524971301E-1
 8.690000000000000E9    -4.007593593976487E-1   -8.814742331445079E-1
 8.700000000000000E9    -5.058802135572482E-1   -8.256880159261202E-1
 8.710000000000000E9    -6.030625148952798E-1   -7.562694789927905E-1
 8.720000000000000E9    -6.914658022579314E-1   -6.741740055976180E-1
 8.730000000000000E9    -7.694250726301088E-1   -5.806651385976134E-1
 8.740000000000000E9    -8.356538650023848E-1   -4.777243348305594E-1
 8.750000000000000E9    -8.891648626074408E-1   -3.673176028717298E-1
 8.760000000000000E9    -9.290467557563309E-1   -2.522629443669456E-1
 8.770000000000000E9    -9.545996930091178E-1   -1.345841350785079E-1
 8.780000000000000E9    -9.655621084651973E-1   -1.649118831488123E-2
 8.790000000000000E9    -9.619619031184973E-1    1.001735597451308E-1
 8.800000000000000E9    -9.438831012069316E-1    2.141204363304886E-1
 8.810000000000000E9    -9.117496562721485E-1    3.239487181921044E-1
 8.820000000000000E9    -8.664094192390704E-1    4.287051420804269E-1
 8.830000000000000E9    -8.087595510363862E-1    5.274173834162341E-1
 8.840000000000000E9    -7.399301986713236E-1    6.188413228798029E-1
 8.850000000000000E9    -6.615806683180523E-1    7.018442328672808E-1
 8.860000000000000E9    -5.750915872300841E-1    7.750120592441118E-1
 8.870000000000000E9    -4.822873599744963E-1    8.374966571703509E-1
 8.880000000000000E9    -3.847114960669790E-1    8.881930635370175E-1
 8.890000000000000E9    -2.832067103753627E-1    9.266831588932146E-1
 8.900000000000000E9    -1.790673164655732E-1    9.528697627846830E-1
 8.910000000000000E9    -7.319471887753264E-2    9.664509629419666E-1
 8.920000000000000E9     3.416631004925301E-2    9.675641467450161E-1
 8.930000000000000E9     1.420692116566404E-1    9.565975116074300E-1
 8.940000000000000E9     2.492625498983104E-1    9.334612031836946E-1
 8.950000000000000E9     3.541400820555602E-1    8.984466705622374E-1
 8.960000000000000E9     4.552316836202178E-1    8.523002523230319E-1
 8.970000000000000E9     5.505778848004509E-1    7.950226973075194E-1
 8.980000000000000E9     6.388739232112697E-1    7.272050985654778E-1
 8.990000000000000E9     7.186329999518741E-1    6.494137964958799E-1
 9.000000000000000E9     7.889054183808762E-1    5.618341714404604E-1
 9.010000000000000E9     8.483452543320643E-1    4.650849095189138E-1
 9.020000000000000E9     8.960561606543680E-1    3.595190895062512E-1
 9.030000000000000E9     9.314585867425850E-1    2.458154432706147E-1
 9.040000000000000E9     9.530828763415066E-1    1.252217868589318E-1
 9.050000000000000E9     9.599479891528105E-1   -2.174682959583691E-4
 9.060000000000000E9     9.504888188135076E-1   -1.281956119830613E-1
 9.070000000000000E9     9.245187910106508E-1   -2.560322057633141E-1
 9.080000000000000E9     8.805948554792963E-1   -3.808838031223158E-1
 9.090000000000000E9     8.187889907402505E-1   -4.995364529072850E-1
 9.100000000000000E9     7.395027019476704E-1   -6.092252247455714E-1
 9.110000000000000E9     6.432230181513641E-1   -7.074639447063017E-1
 9.120000000000000E9     5.311406358439626E-1   -7.916431554713450E-1
 9.130000000000000E9     4.053170339119063E-1   -8.594176717691031E-1
 9.140000000000000E9     2.679807631614822E-1   -9.088305649689723E-1
 9.150000000000000E9     1.224831108107119E-1   -9.377159120022278E-1
 9.160000000000000E9    -2.721859041197156E-2   -9.441867046318496E-1
 9.170000000000000E9    -1.760559248579944E-1   -9.277106670907180E-1
 9.180000000000000E9    -3.198464520026143E-1   -8.883125251942899E-1
 9.190000000000000E9    -4.538207555108650E-1   -8.276516037765858E-1
 9.200000000000000E9    -5.743325167061492E-1   -7.481807496080093E-1
 9.210000000000000E9    -6.798250326886064E-1   -6.528758784466062E-1
 9.220000000000000E9    -7.684770284069762E-1   -5.446175243428149E-1
 9.230000000000000E9    -8.388494027726526E-1   -4.265533604891683E-1
 9.240000000000000E9    -8.914797756362944E-1   -3.019436384826248E-1
 9.250000000000000E9    -9.259212245458439E-1   -1.734608118343771E-1
 9.260000000000000E9    -9.422350788079636E-1   -4.469845443691154E-2
 9.270000000000000E9    -9.414123315760222E-1    8.132040044920605E-2
 9.280000000000000E9    -9.245219778638687E-1    2.021256601089050E-1
 9.290000000000000E9    -8.933866198586261E-1    3.156003907439019E-1
 9.300000000000000E9    -8.497905990984180E-1    4.202270581814896E-1
 9.310000000000000E9    -7.959814064298583E-1    5.158137303367963E-1
 9.320000000000000E9    -7.336592568602379E-1    6.016463436543895E-1
 9.330000000000000E9    -6.644628824935621E-1    6.781135324948335E-1
 9.340000000000000E9    -5.898542601339638E-1    7.451020271671159E-1
 9.350000000000000E9    -5.110379291867003E-1    8.031447866265155E-1
 9.360000000000000E9    -4.288997114336888E-1    8.520321701215305E-1
 9.370000000000000E9    -3.445664005144270E-1    8.916966820759341E-1
 9.380000000000000E9    -2.592581108969125E-1    9.220861345024248E-1
 9.390000000000000E9    -1.738334504582609E-1    9.432934218781380E-1
 9.400000000000000E9    -8.935126886307840E-2    9.559240716664502E-1
 9.410000000000000E9    -6.374883681103488E-3    9.605882316881217E-1
 9.420000000000000E9     7.453754673432993E-2    9.579794686549604E-1
 9.430000000000000E9     1.533007495977297E-1    9.489890773489847E-1
 9.440000000000000E9     2.298441493096504E-1    9.341082278685578E-1
 9.450000000000000E9     3.041269068065141E-1    9.135451257686495E-1
 9.460000000000000E9     3.761233224686259E-1    8.876836461782401E-1
 9.470000000000000E9     4.454036748567753E-1    8.565092644178331E-1
 9.480000000000000E9     5.115514389594371E-1    8.199351692734560E-1
 9.490000000000000E9     5.742273327584548E-1    7.783161365858220E-1
 9.500000000000000E9     6.328774780555478E-1    7.319813609254678E-1
 9.510000000000000E9     6.871475896341150E-1    6.814031491048637E-1
 9.520000000000000E9     7.372161843463144E-1    6.268269350086783E-1
 9.530000000000000E9     7.827348028137023E-1    5.690089035892542E-1
 9.540000000000000E9     8.238594083610159E-1    5.082198701556357E-1
 9.550000000000000E9     8.605417798221070E-1    4.444691980726741E-1
 9.560000000000000E9     8.926924054890352E-1    3.779818335461119E-1
 9.570000000000000E9     9.199660917039538E-1    3.084875764164490E-1
 9.580000000000000E9     9.420797612273119E-1    2.360513561152827E-1
 9.590000000000000E9     9.582143450890547E-1    1.607630184820485E-1
 9.600000000000000E9     9.681209415979605E-1    8.267678137534233E-2
 9.610000000000000E9     9.713431659935090E-1    2.337876490242176E-3
 9.620000000000000E9     9.674211440745242E-1   -7.977898959905286E-2
 9.630000000000000E9     9.563951661580624E-1   -1.631013651842669E-1
 9.640000000000000E9     9.380063758033313E-1   -2.467029491751294E-1
 9.650000000000000E9     9.121173193840821E-1   -3.302729045271043E-1
 9.660000000000000E9     8.777323716471610E-1   -4.136781236852962E-1
 9.670000000000000E9     8.346028949616460E-1   -4.957708710989457E-1
 9.680000000000000E9     7.815104158765193E-1   -5.758308309472827E-1
 9.690000000000000E9     7.179853350927186E-1   -6.527276988029709E-1
 9.700000000000000E9     6.429372664682632E-1   -7.251094922704681E-1
 9.710000000000000E9     5.564212116137004E-1   -7.915811922620962E-1
 9.720000000000000E9     4.587132675283801E-1   -8.495979666137374E-1
 9.730000000000000E9     3.501993352919568E-1   -8.974938097751065E-1
 9.740000000000000E9     2.319670579200654E-1   -9.331903396889136E-1
 9.750000000000000E9     1.052903894086312E-1   -9.542880272355416E-1
 9.760000000000000E9    -2.803613706688038E-2   -9.582991079061917E-1
 9.770000000000000E9    -1.655228367268547E-1   -9.429948329781329E-1
 9.780000000000000E9    -3.047945150173407E-1   -9.055524736125344E-1
 9.790000000000000E9    -4.414695046238827E-1   -8.444202850392687E-1
 9.800000000000000E9    -5.706726480004993E-1   -7.585651449904024E-1
 9.810000000000000E9    -6.870147108191040E-1   -6.487265077896025E-1
 9.820000000000000E9    -7.847843864705094E-1   -5.175450587414293E-1
 9.830000000000000E9    -8.596941210770769E-1   -3.696336825577318E-1
 9.840000000000000E9    -9.080102289344688E-1   -2.105201247066960E-1
 9.850000000000000E9    -9.279578159281544E-1   -4.642273015973843E-2
 9.860000000000000E9    -9.192695654778525E-1    1.167695992065467E-1
 9.870000000000000E9    -8.830938067755612E-1    2.732442847526820E-1
 9.880000000000000E9    -8.215369431556087E-1    4.180552634389562E-1
 9.890000000000000E9    -7.381384437398555E-1    5.470108760534531E-1
 9.900000000000000E9    -6.373945513361803E-1    6.572077857222782E-1
 9.910000000000000E9    -5.243139039420992E-1    7.469926818557739E-1
 9.920000000000000E9    -4.039876425155494E-1    8.159166201973719E-1
 9.930000000000000E9    -2.811962001148813E-1    8.644561826801780E-1
 9.940000000000000E9    -1.594537708865202E-1    8.947618702311186E-1
 9.950000000000000E9    -4.138992317281044E-2    9.081302496113974E-1
 9.960000000000000E9     7.116544126665107E-2    9.064918844230963E-1
 9.970000000000000E9     1.774366164906179E-1    8.917310223017642E-1
 9.980000000000000E9     2.768424364736684E-1    8.654635812520924E-1
 9.990000000000000E9     3.691361483452099E-1    8.292161249847810E-1
 1.000000000000000E+10   4.542492365521533E-1    7.849559593690987E-1
 1.001000000000000E+10   5.313038155276906E-1    7.334523474860365E-1
 1.002000000000000E+10   6.011643151143448E-1    6.770336524772421E-1
 1.003000000000000E+10   6.634215182863169E-1    6.173225004136911E-1
 1.004000000000000E+10   7.179977555747713E-1    5.554795537707277E-1
 1.005000000000000E+10   7.653059888648976E-1    4.922528935937983E-1
 1.006000000000000E+10   8.056348538641991E-1    4.282606761326194E-1
 1.007000000000000E+10   8.391113115992047E-1    3.631021738454261E-1
 1.008000000000000E+10   8.661324663390196E-1    2.968255485577607E-1
 1.009000000000000E+10   8.871132759605423E-1    2.291730095398654E-1
 1.010000000000000E+10   9.020628780016453E-1    1.600029584783660E-1
 1.011000000000000E+10   9.114949206024742E-1    8.951751835791791E-2
 1.012000000000000E+10   9.156581570772729E-1    1.854961796852365E-2
 1.013000000000000E+10   9.150359261152945E-1   -5.241775450745156E-2
 1.014000000000000E+10   9.101065607665284E-1   -1.221311706285013E-1
 1.015000000000000E+10   9.010374232966480E-1   -1.901118580126304E-1
 1.016000000000000E+10   8.875942046380673E-1   -2.559510542378811E-1
 1.017000000000000E+10   8.699926936196379E-1   -3.193270315942664E-1
 1.018000000000000E+10   8.476740573557171E-1   -3.803490315564887E-1
 1.019000000000000E+10   8.203365592983615E-1   -4.391869325468234E-1
 1.020000000000000E+10   7.877209926267716E-1   -4.962846727778766E-1
 1.021000000000000E+10   7.495713390822520E-1   -5.518212517549572E-1
 1.022000000000000E+10   7.058208644367201E-1   -6.059234122433516E-1
 1.023000000000000E+10   6.569096165017460E-1   -6.580180095061716E-1
 1.024000000000000E+10   6.033534218110519E-1   -7.075124199867743E-1
 1.025000000000000E+10   5.460340770627313E-1   -7.537833790825527E-1
 1.026000000000000E+10   4.855974114150783E-1   -7.959642186910876E-1
 1.027000000000000E+10   4.226609122004470E-1   -8.332985567199277E-1
 1.028000000000000E+10   3.572105653263929E-1   -8.653536150693338E-1
 1.029000000000000E+10   2.891367900563801E-1   -8.917581826709449E-1
 1.030000000000000E+10   2.178297203398141E-1   -9.121611455514351E-1
 1.031000000000000E+10   1.427218311051462E-1   -9.262533520733361E-1
 1.032000000000000E+10   6.367446863602083E-2   -9.336693057046332E-1
 1.033000000000000E+10  -1.889525088851892E-2   -9.338935056628695E-1
 1.034000000000000E+10  -1.044067257269429E-1   -9.268861963763785E-1
 1.035000000000000E+10  -1.919800072095053E-1   -9.121567558518930E-1
 1.036000000000000E+10  -2.800685976925897E-1   -8.892549132938259E-1
 1.037000000000000E+10  -3.672151275900089E-1   -8.579080471662412E-1
 1.038000000000000E+10  -4.520158042088377E-1   -8.176400628490917E-1
 1.039000000000000E+10  -5.333536337162634E-1   -7.678553572590265E-1
 1.040000000000000E+10  -6.100996813540190E-1   -7.080660734852741E-1
 1.041000000000000E+10  -6.817542293312662E-1   -6.378204424493598E-1
 1.042000000000000E+10  -7.471282556575456E-1   -5.568118303618065E-1
 1.043000000000000E+10  -8.052530910241507E-1   -4.648159655349799E-1
 1.044000000000000E+10  -8.545150840790854E-1   -3.625600163941839E-1
 1.045000000000000E+10  -8.927942836665221E-1   -2.514602280215324E-1
 1.046000000000000E+10  -9.186413103319148E-1   -1.336927158843333E-1
 1.047000000000000E+10  -9.301504098686929E-1   -1.156542887323972E-2
 1.048000000000000E+10  -9.255683686438626E-1    1.123539365386693E-1
 1.049000000000000E+10  -9.043213062975753E-1    2.358405916184756E-1
 1.050000000000000E+10  -8.654639077104147E-1    3.560208019377057E-1
 1.051000000000000E+10  -8.089513174871579E-1    4.713762882508795E-1
 1.052000000000000E+10  -7.350108675301387E-1    5.797396475382733E-1
 1.053000000000000E+10  -6.442376182382309E-1    6.787056517921749E-1
 1.054000000000000E+10  -5.385871565022852E-1    7.654303470449514E-1
 1.055000000000000E+10  -4.205887028734155E-1    8.377624196518419E-1
 1.056000000000000E+10  -2.939656602604697E-1    8.929740901653330E-1
 1.057000000000000E+10  -1.621285429889350E-1    9.301088835071446E-1
 1.058000000000000E+10  -2.883409765705832E-2    9.479743148495713E-1
 1.059000000000000E+10   1.023608116353436E-1    9.467930010094082E-1
 1.060000000000000E+10   2.296278428613087E-1    9.272749523893423E-1
 1.061000000000000E+10   3.511164408657572E-1    8.902364602716135E-1
 1.062000000000000E+10   4.655760479983291E-1    8.372668227156361E-1
 1.063000000000000E+10   5.710922749428997E-1    7.699333472672309E-1
 1.064000000000000E+10   6.666464579585537E-1    6.905886743350776E-1
 1.065000000000000E+10   7.508181717851825E-1    6.010972651182126E-1
 1.066000000000000E+10   8.222633890879015E-1    5.044492477492041E-1
 1.067000000000000E+10   8.799510571921135E-1    4.032357987968659E-1
 1.068000000000000E+10   9.237063618247305E-1    2.994629257806524E-1
 1.069000000000000E+10   9.536821206403360E-1    1.951613556181706E-1
 1.070000000000000E+10   9.704294061698522E-1    9.118466404389688E-2
 1.071000000000000E+10   9.746948580272735E-1   -1.197872804706650E-2
 1.072000000000000E+10   9.675567984337010E-1   -1.134719482009429E-1
 1.073000000000000E+10   9.496453207054865E-1   -2.133542694798131E-1
 1.074000000000000E+10   9.220522855034287E-1   -3.102384521684919E-1
 1.075000000000000E+10   8.853807958056006E-1   -4.036072081887671E-1
 1.076000000000000E+10   8.408849786967477E-1   -4.920397043286983E-1
 1.077000000000000E+10   7.889060218004437E-1   -5.742696267751025E-1
 1.078000000000000E+10   7.312101519508380E-1   -6.489329569851245E-1
 1.079000000000000E+10   6.678589042323796E-1   -7.152553348441325E-1
 1.080000000000000E+10   6.000025425098353E-1   -7.734706153452346E-1
 1.081000000000000E+10   5.274281818539583E-1   -8.236593046610062E-1
 1.082000000000000E+10   4.508867311578522E-1   -8.657255531725473E-1
 1.083000000000000E+10   3.701699619688766E-1   -9.008971512094470E-1
 1.084000000000000E+10   2.857881212993246E-1   -9.286901639086287E-1
 1.085000000000000E+10   1.986442063862747E-1   -9.496846985153568E-1
 1.086000000000000E+10   1.091273526909809E-1   -9.635038035604334E-1
 1.087000000000000E+10   1.899448928971357E-2   -9.696379851702098E-1
 1.088000000000000E+10  -7.012658543403125E-2   -9.680806594535932E-1
 1.089000000000000E+10  -1.576225793811470E-1   -9.583809305450943E-1
 1.090000000000000E+10  -2.423071619446718E-1   -9.404866172297609E-1
 1.091000000000000E+10  -3.239432242279899E-1   -9.143051199839315E-1
 1.092000000000000E+10  -4.023044130473600E-1   -8.805059421171110E-1
 1.093000000000000E+10  -4.777012237671562E-1   -8.389749058703057E-1
 1.094000000000000E+10  -5.502619243925209E-1   -7.898171873818657E-1
 1.095000000000000E+10  -6.195818227658473E-1   -7.333432153470765E-1
 1.096000000000000E+10  -6.848869854841866E-1   -6.697395507376419E-1
 1.097000000000000E+10  -7.456696690028970E-1   -5.995423752546440E-1
 1.098000000000000E+10  -8.000171375008787E-1   -5.237009903918830E-1
 1.099000000000000E+10  -8.467900215740825E-1   -4.431654818383081E-1
 1.100000000000000E+10  -8.851596584361168E-1   -3.589908029618056E-1
 1.101000000000000E+10  -9.145963450665673E-1   -2.720659624160058E-1
 1.102000000000000E+10  -9.347237243544290E-1   -1.828111742731272E-1
 1.103000000000000E+10  -9.456027519366008E-1   -9.148131582598883E-2
 1.104000000000000E+10  -9.472359611068014E-1    1.345587257524905E-3
 1.105000000000000E+10  -9.397706607631079E-1    9.543395484801007E-2
 1.106000000000000E+10  -9.229898644680766E-1    1.900638796424262E-1
 1.107000000000000E+10  -8.966396171376084E-1    2.842683218822462E-1
 1.108000000000000E+10  -8.609261564142281E-1    3.766617109435911E-1
 1.109000000000000E+10  -8.156436762622722E-1    4.653153125271050E-1
 1.110000000000000E+10  -7.611749597842848E-1    5.489875995757840E-1
 1.111000000000000E+10  -6.980609218558711E-1    6.257466758139313E-1
 1.112000000000000E+10  -6.273023828834481E-1    6.947765127493295E-1
 1.113000000000000E+10  -5.497314350209909E-1    7.555272603082754E-1
 1.114000000000000E+10  -4.660928212000890E-1    8.077434814218174E-1
 1.115000000000000E+10  -3.770626473264450E-1    8.511637506055267E-1
 1.116000000000000E+10  -2.836746045922319E-1    8.857788004946795E-1
 1.117000000000000E+10  -1.864675761311828E-1    9.110283913118137E-1
 1.118000000000000E+10  -8.665166852025685E-2    9.260915781217341E-1
 1.119000000000000E+10   1.415486686509705E-2    9.306928797954611E-1
 1.120000000000000E+10   1.143691665411967E-1    9.244136744318285E-1
 1.121000000000000E+10   2.124696542890588E-1    9.071354436035058E-1
 1.122000000000000E+10   3.075380775537897E-1    8.792302863537452E-1
 1.123000000000000E+10   3.984173709865396E-1    8.412494888586074E-1
 1.124000000000000E+10   4.844367011692167E-1    7.941305323210425E-1
 1.125000000000000E+10   5.652426787775106E-1    7.383981817161537E-1
 1.126000000000000E+10   6.398952229919783E-1    6.749334354097957E-1
 1.127000000000000E+10   7.082849234644507E-1    6.043040152868377E-1
 1.128000000000000E+10   7.692513189770716E-1    5.273342900434446E-1
 1.129000000000000E+10   8.219966529801084E-1    4.445204056151687E-1
 1.130000000000000E+10   8.656859382289603E-1    3.573552994908274E-1
 1.131000000000000E+10   8.997137497837567E-1    2.664973783531615E-1
 1.132000000000000E+10   9.234357578809673E-1    1.735599218778500E-1
 1.133000000000000E+10   9.370180746947249E-1    7.914019024987470E-2
 1.134000000000000E+10   9.407974512124122E-1   -1.553142831744581E-2
 1.135000000000000E+10   9.353155204074722E-1   -1.098882795796031E-1
 1.136000000000000E+10   9.204501826470262E-1   -2.033014158514065E-1
 1.137000000000000E+10   8.969386212453049E-1   -2.952213278941980E-1
 1.138000000000000E+10   8.647456357952270E-1   -3.848720797910123E-1
 1.139000000000000E+10   8.235870739160438E-1   -4.710753347183135E-1
 1.140000000000000E+10   7.738051099240703E-1   -5.528095695701144E-1
 1.141000000000000E+10   7.157342334411863E-1   -6.291480840261968E-1
 1.142000000000000E+10   6.496029686850805E-1   -6.987153278179626E-1
 1.143000000000000E+10   5.767808207387418E-1   -7.608798445896822E-1
 1.144000000000000E+10   4.980736809133057E-1   -8.152286972203334E-1
 1.145000000000000E+10   4.143801788774864E-1   -8.613163973096335E-1
 1.146000000000000E+10   3.259555340090319E-1   -8.994844596797402E-1
 1.147000000000000E+10   2.340085417264120E-1   -9.290930119149610E-1
 1.148000000000000E+10   1.387438441900598E-1   -9.492632407188293E-1
 1.149000000000000E+10   4.148333033558200E-2   -9.603090046759930E-1
 1.150000000000000E+10  -5.748537722655423E-2   -9.607060906557835E-1
 1.151000000000000E+10  -1.564816600107988E-1   -9.503286071722780E-1
 1.152000000000000E+10  -2.543178926721178E-1   -9.293948028667965E-1
 1.153000000000000E+10  -3.501028348894873E-1   -8.977764130836213E-1
 1.154000000000000E+10  -4.421443552338651E-1   -8.556221175018024E-1
 1.155000000000000E+10  -5.296828782593749E-1   -8.037121766893518E-1
 1.156000000000000E+10  -6.112841268413458E-1   -7.427306008675282E-1
 1.157000000000000E+10  -6.869338599977354E-1   -6.734515393444853E-1
 1.158000000000000E+10  -7.553644106615689E-1   -5.962804726915204E-1
 1.159000000000000E+10  -8.154004533552333E-1   -5.117052506929187E-1
 1.160000000000000E+10  -8.665192276565600E-1   -4.196518740255211E-1
 1.161000000000000E+10  -9.071567465581751E-1   -3.215883298951658E-1
 1.162000000000000E+10  -9.363438900036729E-1   -2.179242214719510E-1
 1.163000000000000E+10  -9.533500999811857E-1   -1.109226179058755E-1
 1.164000000000000E+10  -9.579410296548130E-1   -2.026519517009827E-3
 1.165000000000000E+10  -9.505928584329943E-1    1.071624607256449E-1
 1.166000000000000E+10  -9.313290132970462E-1    2.142871576561673E-1
 1.167000000000000E+10  -9.007307971092647E-1    3.186231247360454E-1
 1.168000000000000E+10  -8.589947083024320E-1    4.185511905768188E-1
 1.169000000000000E+10  -8.060774534953203E-1    5.129012704125520E-1
 1.170000000000000E+10  -7.425878009712853E-1    6.008103369838884E-1
 1.171000000000000E+10  -6.690425727727400E-1    6.802203740920475E-1
 1.172000000000000E+10  -5.862824634988492E-1    7.505501603400349E-1
 1.173000000000000E+10  -4.953564163138559E-1    8.108511616507239E-1
 1.174000000000000E+10  -3.975573038857185E-1    8.603008615027994E-1
 1.175000000000000E+10  -2.951101656590969E-1    8.984398828985537E-1
 1.176000000000000E+10  -1.897578246935213E-1    9.249347326661426E-1
 1.177000000000000E+10  -8.334134899448502E-2    9.396918021672590E-1
 1.178000000000000E+10   2.250268780585065E-2    9.429445782156473E-1
 1.179000000000000E+10   1.261042681725807E-1    9.347697552941584E-1
 1.180000000000000E+10   2.266704176546246E-1    9.153603146612707E-1
 1.181000000000000E+10   3.231972491524002E-1    8.850226250699059E-1
 1.182000000000000E+10   4.150964837908564E-1    8.442593923926988E-1
 1.183000000000000E+10   5.012852007283815E-1    7.935761544158486E-1
 1.184000000000000E+10   5.811503391001300E-1    7.343694014886323E-1
 1.185000000000000E+10   6.540061312870554E-1    6.677910076000048E-1
 1.186000000000000E+10   7.189672689222705E-1    5.955381408231198E-1
 1.187000000000000E+10   7.759840399265264E-1    5.184271504507502E-1
 1.188000000000000E+10   8.246486235872239E-1    4.376193366002456E-1
 1.189000000000000E+10   8.645075607146158E-1    3.540354556462590E-1
 1.190000000000000E+10   8.953130933522835E-1    2.680993536119535E-1
 1.191000000000000E+10   9.166814006462933E-1    1.804721164031360E-1
 1.192000000000000E+10   9.289319918375053E-1    9.199487266868095E-2
 1.193000000000000E+10   9.320418661930897E-1    3.022544731747068E-3
 1.194000000000000E+10   9.265994787713532E-1   -8.558079052430968E-2
 1.195000000000000E+10   9.131638236756091E-1   -1.729298756860828E-1
 1.196000000000000E+10   8.925195266440920E-1   -2.580310090562031E-1
 1.197000000000000E+10   8.654671860835275E-1   -3.400818887309916E-1
 1.198000000000000E+10   8.321113107971823E-1   -4.178623420767175E-1
 1.199000000000000E+10   7.932958058020808E-1   -4.913023373189897E-1
 1.200000000000000E+10   7.491462058698881E-1   -5.594801477736207E-1
 1.201000000000000E+10   6.992888264567624E-1   -6.223770350888997E-1
 1.202000000000000E+10   6.442537143521294E-1   -6.800973282187911E-1
 1.203000000000000E+10   5.838198380380235E-1   -7.322588441314272E-1
 1.204000000000000E+10   5.180889272802126E-1   -7.788719579500433E-1
 1.205000000000000E+10   4.476902420149036E-1   -8.202039979769900E-1
 1.206000000000000E+10   3.733240770493917E-1   -8.560265719207101E-1
 1.207000000000000E+10   2.962460002612711E-1   -8.858994838135786E-1
 1.208000000000000E+10   2.171274552092121E-1   -9.098168614097424E-1
 1.209000000000000E+10   1.372454902773342E-1   -9.273277123139499E-1
 1.210000000000000E+10   5.717018336239256E-2   -9.381572383523661E-1
 1.211000000000000E+10  -2.291090033464191E-2   -9.418265975301220E-1
 1.212000000000000E+10  -1.024368039870681E-1   -9.381287529525182E-1
 1.213000000000000E+10  -1.815937341412154E-1   -9.267692303358558E-1
 1.214000000000000E+10  -2.602093551243017E-1   -9.075603295677667E-1
 1.215000000000000E+10  -3.380209689383535E-1   -8.810403128636667E-1
 1.216000000000000E+10  -4.146368914312502E-1   -8.472518687647760E-1
 1.217000000000000E+10  -4.893794662163579E-1   -8.067089816616148E-1
 1.218000000000000E+10  -5.613534285627305E-1   -7.598646504940245E-1
 1.219000000000000E+10  -6.295488442474323E-1   -7.070013262423307E-1
 1.220000000000000E+10  -6.930290444260037E-1   -6.486103833154029E-1
 1.221000000000000E+10  -7.506343003495763E-1   -5.848098614854019E-1
 1.222000000000000E+10  -8.019653158716565E-1   -5.153611446425299E-1
 1.223000000000000E+10  -8.461084784111371E-1   -4.405776039338541E-1
 1.224000000000000E+10  -8.833438160373355E-1   -3.604264835889532E-1
 1.225000000000000E+10  -9.128204658450653E-1   -2.748868896708539E-1
 1.226000000000000E+10  -9.344621720277966E-1   -1.845157219581714E-1
 1.227000000000000E+10  -9.474487346463362E-1   -9.064688868539103E-2
 1.228000000000000E+10  -9.520014254056371E-1    5.657328735847538E-3
 1.229000000000000E+10  -9.476308152645785E-1    1.030619843802519E-1
 1.230000000000000E+10  -9.340510264718366E-1    1.996699879107927E-1
 1.231000000000000E+10  -9.105008504289829E-1    2.946397677182440E-1
 1.232000000000000E+10  -8.770351003625667E-1    3.869488785894870E-1
 1.233000000000000E+10  -8.333290530075933E-1    4.748917227928833E-1
 1.234000000000000E+10  -7.789538004630855E-1    5.588493085309846E-1
 1.235000000000000E+10  -7.137271708984290E-1    6.374683947781374E-1
 1.236000000000000E+10  -6.384811239633325E-1    7.102110427413652E-1
 1.237000000000000E+10  -5.532271846013138E-1    7.756157272372691E-1
 1.238000000000000E+10  -4.599559578903903E-1    8.327289742857670E-1
 1.239000000000000E+10  -3.594574322542166E-1    8.798076304081636E-1
 1.240000000000000E+10  -2.545773159312895E-1    9.158953390866976E-1
 1.241000000000000E+10  -1.466953128853878E-1    9.395319522477239E-1
 1.242000000000000E+10  -3.746944553525187E-2    9.498842554096407E-1
 1.243000000000000E+10   7.185522174284922E-2    9.462202324716793E-1
 1.244000000000000E+10   1.800457865643633E-1    9.290671358675997E-1
 1.245000000000000E+10   2.858365594487888E-1    8.980838094830920E-1
 1.246000000000000E+10   3.882678217373728E-1    8.535073649928411E-1
 1.247000000000000E+10   4.855845331342310E-1    7.967619629916309E-1
 1.248000000000000E+10   5.763954690473823E-1    7.287444464610796E-1
 1.249000000000000E+10   6.588066963357335E-1    6.509606595138631E-1
 1.250000000000000E+10   7.307895771840988E-1    5.652389292319814E-1
