#  HZ   S   RI   R     50.00 
! Rohde & Schwarz Vector Network Analyzer 
! Rohde-Schwarz,ZNA43-4Port,1332450044101932,2.92
! Created: UTC 6/1/2026, 11:33:59 AM
! freq[Hz]                re:S11                  im:S11
 8.000000000000000E9     4.458116510577297E-1    3.393582388273094E-1
 8.010000000000000E9     4.595305301954810E-1    2.854038338222965E-1
 8.020000000000000E9     4.655418199788681E-1    2.286855213906504E-1
 8.030000000000000E9     4.634979595444319E-1    1.699847016664450E-1
 8.040000000000000E9     4.530171128085200E-1    1.104555235176323E-1
 8.050000000000000E9     4.339968182673305E-1    5.184908594929003E-2
 8.060000000000000E9     4.063342739373399E-1   -4.040775938785247E-3
 8.070000000000000E9     3.703853451741183E-1   -5.520696489884684E-2
 8.080000000000000E9     3.266055924027478E-1   -9.961284754693447E-2
 8.090000000000000E9     2.756984536138334E-1   -1.353735167584528E-1
 8.100000000000000E9     2.187518295793255E-1   -1.609338611714084E-1
 8.110000000000000E9     1.572040033896171E-1   -1.751602573270666E-1
 8.120000000000000E9     9.321821867163772E-2   -1.772989488473121E-1
 8.130000000000000E9     2.912730793314028E-2   -1.671830957205593E-1
 8.140000000000000E9    -3.260155082796958E-2   -1.453689975013308E-1
 8.150000000000000E9    -8.906877858614856E-2   -1.126406024527613E-1
 8.160000000000000E9    -1.377105629385900E-1   -7.070001450375182E-2
 8.170000000000000E9    -1.766206956287387E-1   -2.092202932270950E-2
 8.180000000000000E9    -2.041219608885198E-1    3.471562144624980E-2
 8.190000000000000E9    -2.193807675014375E-1    9.423103620944705E-2
 8.200000000000000E9    -2.222902765754677E-1    1.554985151568123E-1
 8.210000000000000E9    -2.133956267637602E-1    2.164898716642391E-1
 8.220000000000000E9    -1.937418756582159E-1    2.752883189524908E-1
 8.230000000000000E9    -1.646419533083088E-1    3.299358975891188E-1
 8.240000000000000E9    -1.275363872489485E-1    3.789355580030042E-1
 8.250000000000000E9    -8.408937904527621E-2    4.208671713753812E-1
 8.260000000000000E9    -3.560560323965212E-2    4.546975328195501E-1
 8.270000000000000E9     1.679180360998279E-2    4.797081716423903E-1
 8.280000000000000E9     7.209661059414896E-2    4.956293116193862E-1
 8.290000000000000E9     1.296038167648458E-1    5.023871323992215E-1
 8.300000000000000E9     1.883919119766195E-1    5.002642151987513E-1
 8.310000000000000E9     2.472343544460701E-1    4.899158196521112E-1
 8.320000000000000E9     3.050816549649900E-1    4.719606234500232E-1
 8.330000000000000E9     3.608407376955243E-1    4.471226226180634E-1
 8.340000000000000E9     4.133816371975060E-1    4.162033717745023E-1
 8.350000000000000E9     4.615739808089163E-1    3.797015537021158E-1
 8.360000000000000E9     5.045543525493360E-1    3.380167043249231E-1
 8.370000000000000E9     5.417705515580166E-1    2.913326946112343E-1
 8.380000000000000E9     5.725241909626709E-1    2.400201524161568E-1
 8.390000000000000E9     5.966823822929116E-1    1.842637453823384E-1
 8.400000000000000E9     6.140534793685652E-1    1.244116736214704E-1
 8.410000000000000E9     6.246249296345384E-1    6.119425178524711E-2
 8.420000000000000E9     6.282715483453214E-1   -4.400529887530992E-3
 8.430000000000000E9     6.248912037595512E-1   -7.131825137242634E-2
 8.440000000000000E9     6.144984465756562E-1   -1.381667121020853E-1
 8.450000000000000E9     5.968912911247737E-1   -2.036393443108234E-1
 8.460000000000000E9     5.717657657767122E-1   -2.665329512152220E-1
 8.470000000000000E9     5.388530816504276E-1   -3.261798274054359E-1
 8.480000000000000E9     4.980213864382645E-1   -3.814782639426494E-1
 8.490000000000000E9     4.493021244877356E-1   -4.320530354165276E-1
 8.500000000000000E9     3.928913691756933E-1   -4.773292059094598E-1
 8.510000000000000E9     3.290835994792529E-1   -5.162145966886411E-1
 8.520000000000000E9     2.590251968314090E-1   -5.483509016634672E-1
 8.530000000000000E9     1.842643658086009E-1   -5.725673240360968E-1
 8.540000000000000E9     1.063106093392421E-1   -5.881418122294193E-1
 8.550000000000000E9     2.678179185874972E-2   -5.942047977359565E-1
 8.560000000000000E9    -5.274593600304381E-2   -5.898267355628974E-1
 8.570000000000000E9    -1.307899596810220E-1   -5.746074732198859E-1
 8.580000000000000E9    -2.062415600953325E-1   -5.482411507379467E-1
 8.590000000000000E9    -2.777492636290209E-1   -5.107010127338022E-1
 8.600000000000000E9    -3.443647123767052E-1   -4.623043382366711E-1
 8.610000000000000E9    -4.048687089535918E-1   -4.041389047458733E-1
 8.620000000000000E9    -4.579084451982161E-1   -3.374364090254809E-1
 8.630000000000000E9    -5.022252133984660E-1   -2.638652181344598E-1
 8.640000000000000E9    -5.366914637300038E-1   -1.852893939977454E-1
 8.650000000000000E9    -5.600896060844361E-1   -1.034060996871340E-1
 8.660000000000000E9    -5.717920270284493E-1   -2.006837540535332E-2
 8.670000000000000E9    -5.710560308210949E-1    6.316799280045435E-2
 8.680000000000000E9    -5.578755503957750E-1    1.448060058237103E-1
 8.690000000000000E9    -5.325820299183929E-1    2.236720891211081E-1
 8.700000000000000E9    -4.956315863154470E-1    2.985576093913423E-1
 8.710000000000000E9    -4.481161077865114E-1    3.682801358335467E-1
 8.720000000000000E9    -3.914361312933929E-1    4.312495023231228E-1
 8.730000000000000E9    -3.272396135060124E-1    4.862270005772501E-1
 8.740000000000000E9    -2.571441282067424E-1    5.320276414845446E-1
 8.750000000000000E9    -1.825943015062039E-1    5.675330315204759E-1
 8.760000000000000E9    -1.049751497494035E-1    5.918801635325375E-1
 8.770000000000000E9    -2.553799120995820E-2    6.046630756136527E-1
 8.780000000000000E9     5.496453485742855E-2    6.054218024898106E-1
 8.790000000000000E9     1.353873906414209E-1    5.941247019178350E-1
 8.800000000000000E9     2.143858445658039E-1    5.713423042135154E-1
 8.810000000000000E9     2.906834746896095E-1    5.373655648495035E-1
 8.820000000000000E9     3.627685218613070E-1    4.932998628617574E-1
 8.830000000000000E9     4.291504690081011E-1    4.399295649999387E-1
 8.840000000000000E9     4.879846060728759E-1    3.781710133204140E-1
 8.850000000000000E9     5.378652600642494E-1    3.091186301347974E-1
 8.860000000000000E9     5.771607067831470E-1    2.338413259337613E-1
 8.870000000000000E9     6.051761215321914E-1    1.532304338093660E-1
 8.880000000000000E9     6.209876851190300E-1    6.846358318626064E-2
 8.890000000000000E9     6.239932489461565E-1   -1.957105875841189E-2
 8.900000000000000E9     6.141595674093016E-1   -1.094376320420973E-1
 8.910000000000000E9     5.912275072378335E-1   -1.990667759383382E-1
 8.920000000000000E9     5.555156907898730E-1   -2.864101020314075E-1
 8.930000000000000E9     5.074736258129912E-1   -3.692141450595035E-1
 8.940000000000000E9     4.478174624264691E-1   -4.450468023481641E-1
 8.950000000000000E9     3.775198035669182E-1   -5.114854361653103E-1
 8.960000000000000E9     2.976963408820516E-1   -5.667557534003921E-1
 8.970000000000000E9     2.095918452280217E-1   -6.093346350634629E-1
 8.980000000000000E9     1.148312761634072E-1   -6.381386069366902E-1
 8.990000000000000E9     1.523754817269813E-2   -6.525977065118914E-1
 9.000000000000000E9    -8.683284192031354E-2   -6.519135197174077E-1
 9.010000000000000E9    -1.892635852720572E-1   -6.367391183250957E-1
 9.020000000000000E9    -2.892401762288482E-1   -6.073185130588605E-1
 9.030000000000000E9    -3.838818901430015E-1   -5.642857406050537E-1
 9.040000000000000E9    -4.705560410641789E-1   -5.089501664395113E-1
 9.050000000000000E9    -5.475371723683008E-1   -4.425468205639990E-1
 9.060000000000000E9    -6.131287224935641E-1   -3.669014814516824E-1
 9.070000000000000E9    -6.663410510276789E-1   -2.832687378355724E-1
 9.080000000000000E9    -7.068409522979887E-1   -1.935999809221954E-1
 9.090000000000000E9    -7.345718390670086E-1   -9.947642976529782E-2
 9.100000000000000E9    -7.499081146819806E-1   -2.546181785786949E-3
 9.110000000000000E9    -7.529916797625750E-1    9.512546757275871E-2
 9.120000000000000E9    -7.444704818032941E-1    1.915181854080838E-1
 9.130000000000000E9    -7.249385651175333E-1    2.846851670094934E-1
 9.140000000000000E9    -6.951717184755311E-1    3.728515385013658E-1
 9.150000000000000E9    -6.561415215562939E-1    4.547495915681564E-1
 9.160000000000000E9    -6.088522790248628E-1    5.293324281854037E-1
 9.170000000000000E9    -5.542548807804192E-1    5.961833641838803E-1
 9.180000000000000E9    -4.930886088607240E-1    6.553437621737783E-1
 9.190000000000000E9    -4.265118839455092E-1    7.068356618994698E-1
 9.200000000000000E9    -3.551847219637462E-1    7.508364068589994E-1
 9.210000000000000E9    -2.800511365992865E-1    7.874648781538846E-1
 9.220000000000000E9    -2.018869442659915E-1    8.163920560745559E-1
 9.230000000000000E9    -1.219799510660073E-1    8.375443345700244E-1
 9.240000000000000E9    -4.096881027962558E-2    8.505525590662643E-1
 9.250000000000000E9     4.003569458341395E-2    8.553380329574376E-1
 9.260000000000000E9     1.198017794261032E-1    8.519085467897199E-1
 9.270000000000000E9     1.980191071345692E-1    8.405031671421503E-1
 9.280000000000000E9     2.742559680895134E-1    8.214334014158202E-1
 9.290000000000000E9     3.481761329788864E-1    7.948795801929563E-1
 9.300000000000000E9     4.196994849302961E-1    7.612746027704647E-1
 9.310000000000000E9     4.885308803360506E-1    7.206362579612375E-1
 9.320000000000000E9     5.542351675887779E-1    6.733001186593817E-1
 9.330000000000000E9     6.162019605692509E-1    6.192260458530259E-1
 9.340000000000000E9     6.735970481571500E-1    5.586530347284205E-1
 9.350000000000000E9     7.252709901042407E-1    4.917593876415436E-1
 9.360000000000000E9     7.702549263294420E-1    4.186719269062780E-1
 9.370000000000000E9     8.079205351816622E-1    3.402092890406747E-1
 9.380000000000000E9     8.372649044900686E-1    2.564608018795639E-1
 9.390000000000000E9     8.576803430908824E-1    1.681853452728947E-1
 9.400000000000000E9     8.687481383711353E-1    7.552498837548416E-2
 9.410000000000000E9     8.693720518545932E-1   -2.076139309660062E-2
 9.420000000000000E9     8.589880973618074E-1   -1.200440200961287E-1
 9.430000000000000E9     8.359925756848127E-1   -2.216565363900735E-1
 9.440000000000000E9     7.987839278768404E-1   -3.237503224182350E-1
 9.450000000000000E9     7.463314881075001E-1   -4.243249510319709E-1
 9.460000000000000E9     6.775449074813141E-1   -5.206387697415444E-1
 9.470000000000000E9     5.918508942416295E-1   -6.099423283304499E-1
 9.480000000000000E9     4.897067767010713E-1   -6.884756914557330E-1
 9.490000000000000E9     3.721878981079179E-1   -7.527323406503990E-1
 9.500000000000000E9     2.411744617847516E-1   -7.996175217415151E-1
 9.510000000000000E9     9.905774071124829E-2   -8.248853916111839E-1
 9.520000000000000E9    -5.055795773875062E-2   -8.254870640518964E-1
 9.530000000000000E9    -2.025891930715297E-1   -7.989585008223720E-1
 9.540000000000000E9    -3.512423575175309E-1   -7.434576931704627E-1
 9.550000000000000E9    -4.895807322644387E-1   -6.590543042388362E-1
 9.560000000000000E9    -6.106762135998739E-1   -5.482134049601501E-1
 9.570000000000000E9    -7.085048250298364E-1   -4.154557231248387E-1
 9.580000000000000E9    -7.789609939308574E-1   -2.673679711505502E-1
 9.590000000000000E9    -8.199112215423168E-1   -1.109305179471317E-1
 9.600000000000000E9    -8.311134463335709E-1    4.674754686032678E-2
 9.610000000000000E9    -8.146470232972075E-1    1.998192989506720E-1
 9.620000000000000E9    -7.729753575786295E-1    3.428688090604484E-1
 9.630000000000000E9    -7.096705828565789E-1    4.720594406686090E-1
 9.640000000000000E9    -6.289088172828672E-1    5.849198860342683E-1
 9.650000000000000E9    -5.347330309558195E-1    6.792580615458722E-1
 9.660000000000000E9    -4.321686999965763E-1    7.548754538553889E-1
 9.670000000000000E9    -3.247590204390384E-1    8.126117646128420E-1
 9.680000000000000E9    -2.159657258507410E-1    8.535273659528587E-1
 9.690000000000000E9    -1.081857680800905E-1    8.792291043217698E-1
 9.700000000000000E9    -3.141131500478328E-3    8.911882370782391E-1
 9.710000000000000E9     9.774072304168176E-2    8.908231836120425E-1
 9.720000000000000E9     1.941191391035715E-1    8.794528848506877E-1
 9.730000000000000E9     2.850490714214781E-1    8.580848834706423E-1
 9.740000000000000E9     3.702736263737107E-1    8.279090492971449E-1
 9.750000000000000E9     4.495243237713024E-1    7.899730203311434E-1
 9.760000000000000E9     5.226538005934773E-1    7.454520484474166E-1
 9.770000000000000E9     5.894655962054441E-1    6.956453355676653E-1
 9.780000000000000E9     6.497868557095583E-1    6.418355800772291E-1
 9.790000000000000E9     7.038918069410365E-1    5.847009610893399E-1
 9.800000000000000E9     7.518305160759327E-1    5.251362968686398E-1
 9.810000000000000E9     7.937548598695554E-1    4.633493473744766E-1
 9.820000000000000E9     8.297404628846787E-1    3.995765981328999E-1
 9.830000000000000E9     8.597759228614983E-1    3.336344359052866E-1
 9.840000000000000E9     8.838895135190037E-1    2.656587388696783E-1
 9.850000000000000E9     9.019563114189191E-1    1.956853386458363E-1
 9.860000000000000E9     9.140443053080477E-1    1.242109091384122E-1
 9.870000000000000E9     9.202528027539819E-1    5.177481485173444E-2
 9.880000000000000E9     9.209949892487140E-1   -2.103731985506167E-2
 9.890000000000000E9     9.164505708421572E-1   -9.351282485802508E-2
 9.900000000000000E9     9.067031399872471E-1   -1.651715469516926E-1
 9.910000000000000E9     8.917404584089302E-1   -2.357990358463389E-1
 9.920000000000000E9     8.711926197966874E-1   -3.052322711995234E-1
 9.930000000000000E9     8.448105887682161E-1   -3.734523933592400E-1
 9.940000000000000E9     8.118393534424561E-1   -4.401730334029242E-1
 9.950000000000000E9     7.721053246406743E-1   -5.053746674371375E-1
 9.960000000000000E9     7.250073428017351E-1   -5.687421139496324E-1
 9.970000000000000E9     6.707308217603289E-1   -6.295513763062242E-1
 9.980000000000000E9     6.094118394484026E-1   -6.872509160606415E-1
 9.990000000000000E9     5.414190711780127E-1   -7.407420066584008E-1
 1.000000000000000E+10   4.672699509135200E-1   -7.888438378180169E-1
 1.001000000000000E+10   3.870161284210180E-1   -8.317399370725026E-1
 1.002000000000000E+10   3.007890731136380E-1   -8.668515107479129E-1
 1.003000000000000E+10   2.084816928347261E-1   -8.934638774505665E-1
 1.004000000000000E+10   1.097271746230882E-1   -9.101492988716424E-1
 1.005000000000000E+10   4.558334297237432E-3   -9.150634787034044E-1
 1.006000000000000E+10  -1.062549314140905E-1   -9.061617581174748E-1
 1.007000000000000E+10  -2.211334878967899E-1   -8.822886569797805E-1
 1.008000000000000E+10  -3.379400383133342E-1   -8.411198224609528E-1
 1.009000000000000E+10  -4.534375377093686E-1   -7.819670649885969E-1
 1.010000000000000E+10  -5.637631686548591E-1   -7.047387730765801E-1
 1.011000000000000E+10  -6.645380780021873E-1   -6.091302255151644E-1
 1.012000000000000E+10  -7.520717192761625E-1   -4.963773474453057E-1
 1.013000000000000E+10  -8.216282434877745E-1   -3.673349174811989E-1
 1.014000000000000E+10  -8.692267363360962E-1   -2.242956592862262E-1
 1.015000000000000E+10  -8.914839656531693E-1   -7.076922930831356E-2
 1.016000000000000E+10  -8.856433678675290E-1    8.882636128617501E-2
 1.017000000000000E+10  -8.503963259864005E-1    2.479871692386189E-1
 1.018000000000000E+10  -7.868397986358754E-1    3.999333763901900E-1
 1.019000000000000E+10  -6.980691167609682E-1    5.379157218661202E-1
 1.020000000000000E+10  -5.884918984060673E-1    6.561039969358489E-1
 1.021000000000000E+10  -4.639439440103529E-1    7.507927006531973E-1
 1.022000000000000E+10  -3.297755211556064E-1    8.202396633690694E-1
 1.023000000000000E+10  -1.909004588579929E-1    8.645228632179854E-1
 1.024000000000000E+10  -5.104104104558894E-2    8.839897466778680E-1
 1.025000000000000E+10   8.608457322031417E-2    8.810132218257906E-1
 1.026000000000000E+10   2.176893237362193E-1    8.573884571902528E-1
 1.027000000000000E+10   3.410968446175113E-1    8.162216583460082E-1
 1.028000000000000E+10   4.539170414047579E-1    7.604517498904730E-1
 1.029000000000000E+10   5.539841767666707E-1    6.936464504645597E-1
 1.030000000000000E+10   6.406084678946650E-1    6.187992527545161E-1
 1.031000000000000E+10   7.133332785579882E-1    5.380479879149745E-1
 1.032000000000000E+10   7.726812846912233E-1    4.537968589481685E-1
 1.033000000000000E+10   8.189841760328939E-1    3.668515400781704E-1
 1.034000000000000E+10   8.534331965394515E-1    2.783296765273326E-1
 1.035000000000000E+10   8.768173593352918E-1    1.887672825303298E-1
 1.036000000000000E+10   8.903112070976701E-1    9.853768203466655E-2
 1.037000000000000E+10   8.946615810618037E-1    8.568751341920651E-3
 1.038000000000000E+10   8.908345547273852E-1   -7.998103421878155E-2
 1.039000000000000E+10   8.794499273575010E-1   -1.657307451419885E-1
 1.040000000000000E+10   8.612020621542832E-1   -2.479054648160426E-1
 1.041000000000000E+10   8.367639068810024E-1   -3.254302677315912E-1
 1.042000000000000E+10   8.060336883356239E-1   -3.977837989962513E-1
 1.043000000000000E+10   7.695251028332332E-1   -4.647961110594906E-1
 1.044000000000000E+10   7.270121740778527E-1   -5.269290625549969E-1
 1.045000000000000E+10   6.789339576484653E-1   -5.841386066328216E-1
 1.046000000000000E+10   6.249833406196146E-1   -6.369968496779098E-1
 1.047000000000000E+10   5.659872445922497E-1   -6.855277954996034E-1
 1.048000000000000E+10   5.026409132554712E-1   -7.297138005326257E-1
 1.049000000000000E+10   4.356059909634794E-1   -7.688664479300489E-1
 1.050000000000000E+10   3.661127609390346E-1   -8.026853015341633E-1
 1.051000000000000E+10   2.950404863664787E-1   -8.306583654941081E-1
 1.052000000000000E+10   2.229160033715550E-1   -8.519915104080382E-1
 1.053000000000000E+10   1.500967931407044E-1   -8.664218993973505E-1
 1.054000000000000E+10   7.661882758793521E-2   -8.736731423955778E-1
 1.055000000000000E+10   2.291353774313357E-3   -8.733590092433808E-1
 1.056000000000000E+10  -7.314096547306594E-2   -8.655346598189247E-1
 1.057000000000000E+10  -1.495165314993601E-1   -8.500602672043737E-1
 1.058000000000000E+10  -2.263409828524958E-1   -8.272252972331964E-1
 1.059000000000000E+10  -3.026502375700182E-1   -7.969578496203258E-1
 1.060000000000000E+10  -3.771779845511618E-1   -7.597738979978074E-1
 1.061000000000000E+10  -4.487525044783429E-1   -7.156330898658324E-1
 1.062000000000000E+10  -5.158791192195863E-1   -6.650461985354724E-1
 1.063000000000000E+10  -5.773285377215998E-1   -6.077485991221073E-1
 1.064000000000000E+10  -6.320790392562083E-1   -5.438979144367116E-1
 1.065000000000000E+10  -6.795828466695817E-1   -4.735661229393630E-1
 1.066000000000000E+10  -7.195341727423006E-1   -3.966108133728461E-1
 1.067000000000000E+10  -7.512854101143429E-1   -3.132576641218150E-1
 1.068000000000000E+10  -7.744259678324977E-1   -2.239478199052927E-1
 1.069000000000000E+10  -7.883180974866723E-1   -1.298384226986236E-1
 1.070000000000000E+10  -7.920767786371554E-1   -3.255688483939202E-2
 1.071000000000000E+10  -7.851842604621121E-1    6.560218087449655E-2
 1.072000000000000E+10  -7.668568002956818E-1    1.624576232145054E-1
 1.073000000000000E+10  -7.370901874588928E-1    2.560350993376276E-1
 1.074000000000000E+10  -6.954510444065973E-1    3.447553942872339E-1
 1.075000000000000E+10  -6.424214795722467E-1    4.271111663535407E-1
 1.076000000000000E+10  -5.779397635862045E-1    5.021288233070852E-1
 1.077000000000000E+10  -5.029530101309838E-1    5.691068426026950E-1
 1.078000000000000E+10  -4.181234655307574E-1    6.269487443945678E-1
 1.079000000000000E+10  -3.251541731925416E-1    6.745771998350454E-1
 1.080000000000000E+10  -2.261048962391874E-1    7.108677465167562E-1
 1.081000000000000E+10  -1.233378479888693E-1    7.346060023279058E-1
 1.082000000000000E+10  -1.910568539606455E-2    7.452942816274608E-1
 1.083000000000000E+10   8.365673435674972E-2    7.421095642033557E-1
 1.084000000000000E+10   1.833614892596418E-1    7.253522341332307E-1
 1.085000000000000E+10   2.782396754414637E-1    6.953243429697472E-1
 1.086000000000000E+10   3.672209104854646E-1    6.527413764792063E-1
 1.087000000000000E+10   4.495835040295990E-1    5.986064830261814E-1
 1.088000000000000E+10   5.242949251067004E-1    5.339521278853584E-1
 1.089000000000000E+10   5.908051910246047E-1    4.605445638414071E-1
 1.090000000000000E+10   6.478802065404685E-1    3.797444551844339E-1
 1.091000000000000E+10   6.946910620967953E-1    2.936509985246736E-1
 1.092000000000000E+10   7.301237086640988E-1    2.040906907736332E-1
 1.093000000000000E+10   7.538281483750320E-1    1.133064477550715E-1
 1.094000000000000E+10   7.657011801637830E-1    2.246805843206243E-2
 1.095000000000000E+10   7.660858496160114E-1   -6.692737651454651E-2
 1.096000000000000E+10   7.550916561804168E-1   -1.543454940101481E-1
 1.097000000000000E+10   7.340517452752389E-1   -2.393443731454309E-1
 1.098000000000000E+10   7.030324888018544E-1   -3.211818512677064E-1
 1.099000000000000E+10   6.630670626814842E-1   -3.992811886220621E-1
 1.100000000000000E+10   6.149761727871351E-1   -4.726637771028922E-1
 1.101000000000000E+10   5.597314451355495E-1   -5.401449026290381E-1
 1.102000000000000E+10   4.980809430490670E-1   -6.003295492797145E-1
 1.103000000000000E+10   4.312846174336075E-1   -6.525928784355453E-1
 1.104000000000000E+10   3.602175506556734E-1   -6.958974799559872E-1
 1.105000000000000E+10   2.861406067281264E-1   -7.299851628007724E-1
 1.106000000000000E+10   2.094200401396913E-1   -7.553092364485586E-1
 1.107000000000000E+10   1.307877349510993E-1   -7.717152738158842E-1
 1.108000000000000E+10   5.091514453683096E-2   -7.795262698205512E-1
 1.109000000000000E+10  -2.997177263940416E-2   -7.788610956947127E-1
 1.110000000000000E+10  -1.107220642807730E-1   -7.702408951687167E-1
 1.111000000000000E+10  -1.904826481359035E-1   -7.532969954109233E-1
 1.112000000000000E+10  -2.675747749464499E-1   -7.279448498114548E-1
 1.113000000000000E+10  -3.403870368475514E-1   -6.946954874925844E-1
 1.114000000000000E+10  -4.071748214856660E-1   -6.542499023244681E-1
 1.115000000000000E+10  -4.653038943429046E-1   -6.101195391935685E-1
 1.116000000000000E+10  -5.222790506839107E-1   -5.726888617725168E-1
 1.117000000000000E+10  -5.972468718520124E-1   -5.156235225505399E-1
 1.118000000000000E+10  -6.491209640921874E-1   -4.377270833290925E-1
 1.119000000000000E+10  -6.875025999685083E-1   -3.605126315806073E-1
 1.120000000000000E+10  -7.180756751984055E-1   -2.818534684365031E-1
 1.121000000000000E+10  -7.409657490518314E-1   -2.010956496130813E-1
 1.122000000000000E+10  -7.557455306784974E-1   -1.187739473278823E-1
 1.123000000000000E+10  -7.616278027683722E-1   -3.553150270816035E-2
 1.124000000000000E+10  -7.582556407587000E-1    4.742572282158352E-2
 1.125000000000000E+10  -7.457859602336848E-1    1.290926635599975E-1
 1.126000000000000E+10  -7.240896160840986E-1    2.082291199857057E-1
 1.127000000000000E+10  -6.938734747593515E-1    2.842879706004741E-1
 1.128000000000000E+10  -6.554234354809844E-1    3.567399133111890E-1
 1.129000000000000E+10  -6.094904530776312E-1    4.250344904022409E-1
 1.130000000000000E+10  -5.563258677558829E-1    4.883224362392139E-1
 1.131000000000000E+10  -4.970301527381704E-1    5.458551921410236E-1
 1.132000000000000E+10  -4.319231702628827E-1    5.967788912417391E-1
 1.133000000000000E+10  -3.618824526769639E-1    6.402344658939282E-1
 1.134000000000000E+10  -2.879988302348153E-1    6.754553831155902E-1
 1.135000000000000E+10  -2.112678212138184E-1    7.020914897698998E-1
 1.136000000000000E+10  -1.324184255810925E-1    7.197102908188135E-1
 1.137000000000000E+10  -5.286199445397939E-2    7.285618242254022E-1
 1.138000000000000E+10   2.662754293559140E-2    7.290386447338266E-1
 1.139000000000000E+10   1.055421021694113E-1    7.211935070696661E-1
 1.140000000000000E+10   1.829639142755080E-1    7.054589992961378E-1
 1.141000000000000E+10   2.581760608283443E-1    6.821627115421486E-1
 1.142000000000000E+10   3.303528578434950E-1    6.511793425762330E-1
 1.143000000000000E+10   3.984253650182665E-1    6.129683930007712E-1
 1.144000000000000E+10   4.616082132296537E-1    5.677171204667820E-1
 1.145000000000000E+10   5.193162989236797E-1    5.160895812609212E-1
 1.146000000000000E+10   5.707378842820270E-1    4.590230280914494E-1
 1.147000000000000E+10   6.156966445561225E-1    3.970237914485810E-1
 1.148000000000000E+10   6.542017415617711E-1    3.310575475695085E-1
 1.149000000000000E+10   6.855671826964791E-1    2.618412973769860E-1
 1.150000000000000E+10   7.101747979864766E-1    1.902081936599655E-1
 1.151000000000000E+10   7.275700982094083E-1    1.167666030545711E-1
 1.152000000000000E+10   7.374126775600097E-1    4.217784180487705E-2
 1.153000000000000E+10   7.395162714599540E-1   -3.295489025010687E-2
 1.154000000000000E+10   7.336883619088869E-1   -1.077815626860771E-1
 1.155000000000000E+10   7.198662755720658E-1   -1.813223483844375E-1
 1.156000000000000E+10   6.982614483384019E-1   -2.531096205914236E-1
 1.157000000000000E+10   6.692737906363543E-1   -3.220744701996792E-1
 1.158000000000000E+10   6.336259533715557E-1   -3.875901258664688E-1
 1.159000000000000E+10   5.915482752079011E-1   -4.490506655863299E-1
 1.160000000000000E+10   5.439013045486371E-1   -5.061866387332780E-1
 1.161000000000000E+10   4.909320772356995E-1   -5.581127037825736E-1
 1.162000000000000E+10   4.328333532007549E-1   -6.045722895142133E-1
 1.163000000000000E+10   3.701269405880670E-1   -6.448480355358999E-1
 1.164000000000000E+10   3.030028417819828E-1   -6.782151143927949E-1
 1.165000000000000E+10   2.320113230713900E-1   -7.044401836102677E-1
 1.166000000000000E+10   1.579465105521939E-1   -7.227780772623377E-1
 1.167000000000000E+10   8.173688364097147E-2   -7.331652044737336E-1
 1.168000000000000E+10   4.580751448945992E-3   -7.356545945966471E-1
 1.169000000000000E+10  -7.281600874976200E-2   -7.303190506859959E-1
 1.170000000000000E+10  -1.493665539940711E-1   -7.172369661546291E-1
 1.171000000000000E+10  -2.241444734095254E-1   -6.962731242442463E-1
 1.172000000000000E+10  -2.962038853770066E-1   -6.673329097286007E-1
 1.173000000000000E+10  -3.648595184365648E-1   -6.304569918908289E-1
 1.174000000000000E+10  -4.292569888289335E-1   -5.855496089197887E-1
 1.175000000000000E+10  -4.885266796636719E-1   -5.327568505723491E-1
 1.176000000000000E+10  -5.422857611481996E-1   -4.725417980397683E-1
 1.177000000000000E+10  -5.894929952270312E-1   -4.053452922116146E-1
 1.178000000000000E+10  -6.294507711576565E-1   -3.322654764600003E-1
 1.179000000000000E+10  -6.613416933393078E-1   -2.544570674371823E-1
 1.180000000000000E+10  -6.846115635236885E-1   -1.731686819673640E-1
 1.181000000000000E+10  -6.985894477509251E-1   -8.972537121205294E-2
 1.182000000000000E+10  -7.029422717091661E-1   -5.598964582388464E-3
 1.183000000000000E+10  -6.970081363536814E-1    7.901498634459983E-2
 1.184000000000000E+10  -6.800816591887390E-1    1.623250778176754E-1
 1.185000000000000E+10  -6.524224586684342E-1    2.433442310658999E-1
 1.186000000000000E+10  -6.142475603850616E-1    3.211431132576810E-1
 1.187000000000000E+10  -5.661841185652843E-1    3.942905356820576E-1
 1.188000000000000E+10  -5.092881003778067E-1    4.618559125576285E-1
 1.189000000000000E+10  -4.446890590667288E-1    5.224230908063832E-1
 1.190000000000000E+10  -3.738049326710014E-1    5.748964504286806E-1
 1.191000000000000E+10  -2.975542713325485E-1    6.187359468853675E-1
 1.192000000000000E+10  -2.170556180613869E-1    6.525231956227899E-1
 1.193000000000000E+10  -1.334284010475436E-1    6.756272438866764E-1
 1.194000000000000E+10  -4.774927283641348E-2    6.874745116071048E-1
 1.195000000000000E+10   3.882127069707342E-2    6.879611112327875E-1
 1.196000000000000E+10   1.252988936710887E-1    6.771570103708807E-1
 1.197000000000000E+10   2.102548995047337E-1    6.555481619387109E-1
 1.198000000000000E+10   2.922429496186770E-1    6.241875987272715E-1
 1.199000000000000E+10   3.698360236198960E-1    5.838579794600944E-1
 1.200000000000000E+10   4.417426873159842E-1    5.356881594410040E-1
 1.201000000000000E+10   5.067313679744587E-1    4.807310478933711E-1
 1.202000000000000E+10   5.637755321528606E-1    4.197657981514850E-1
 1.203000000000000E+10   6.122281329812340E-1    3.534280376204496E-1
 1.204000000000000E+10   6.515857754350391E-1    2.822933578987188E-1
 1.205000000000000E+10   6.815925604383017E-1    2.065247342095054E-1
 1.206000000000000E+10   7.019424819975629E-1    1.268560945873091E-1
 1.207000000000000E+10   7.126327743041069E-1    4.382920876889599E-2
 1.208000000000000E+10   7.132047552268553E-1   -4.163888928145813E-2
 1.209000000000000E+10   7.031890009816419E-1   -1.283285451390780E-1
 1.210000000000000E+10   6.816121157097399E-1   -2.152652940027198E-1
 1.211000000000000E+10   6.459719830700447E-1   -3.013814429446091E-1
 1.212000000000000E+10   5.908515483086657E-1   -3.848129208105485E-1
 1.213000000000000E+10   5.046923682601507E-1   -4.595193983285415E-1
 1.214000000000000E+10   3.641690682367602E-1   -4.973991797067575E-1
 1.215000000000000E+10   1.904005662537310E-1   -3.788681530359164E-1
 1.216000000000000E+10   3.211756322959768E-1   -1.456046615985901E-1
 1.217000000000000E+10   5.167660093800155E-1   -2.566875493318813E-1
 1.218000000000000E+10   5.270815294334418E-1   -4.114990921764440E-1
 1.219000000000000E+10   4.777407499541893E-1   -5.194465862529882E-1
 1.220000000000000E+10   4.123235890636544E-1   -5.962256665213469E-1
 1.221000000000000E+10   3.416359077878452E-1   -6.531247326803913E-1
 1.222000000000000E+10   2.692767930435912E-1   -6.961825835094444E-1
 1.223000000000000E+10   1.966745113351182E-1   -7.275013628166264E-1
 1.224000000000000E+10   1.240890274153705E-1   -7.485178967475928E-1
 1.225000000000000E+10   5.152328317859543E-2   -7.603937598822169E-1
 1.226000000000000E+10  -2.080162724772467E-2   -7.636553420059007E-1
 1.227000000000000E+10  -9.348439383824206E-2   -7.584738072403473E-1
 1.228000000000000E+10  -1.656451270753127E-1   -7.457019133946985E-1
 1.229000000000000E+10  -2.371070855540434E-1   -7.259320237711353E-1
 1.230000000000000E+10  -3.069797592885179E-1   -6.999684196811670E-1
 1.231000000000000E+10  -3.744705748332226E-1   -6.681414819172798E-1
 1.232000000000000E+10  -4.384014078821411E-1   -6.311551170804122E-1
 1.233000000000000E+10  -4.976546672907667E-1   -5.890228621702001E-1
 1.234000000000000E+10  -5.517556652520271E-1   -5.423084762545100E-1
 1.235000000000000E+10  -6.002100947945613E-1   -4.904258860230349E-1
 1.236000000000000E+10  -6.424787753083219E-1   -4.336810210082703E-1
 1.237000000000000E+10  -6.788855025189556E-1   -3.718804610835883E-1
 1.238000000000000E+10  -7.089654468351397E-1   -3.051129618005909E-1
 1.239000000000000E+10  -7.330811838553198E-1   -2.337769456353195E-1
 1.240000000000000E+10  -7.508246822660439E-1   -1.588322133935055E-1
 1.241000000000000E+10  -7.619978472362362E-1   -8.144131096406451E-2
 1.242000000000000E+10  -7.659519090934512E-1   -2.622739540131153E-3
 1.243000000000000E+10  -7.624794251067392E-1    7.624254987848106E-2
 1.244000000000000E+10  -7.511166201902774E-1    1.539623454259640E-1
 1.245000000000000E+10  -7.312091200046233E-1    2.296596111827290E-1
 1.246000000000000E+10  -7.023872000082592E-1    3.029885607465934E-1
 1.247000000000000E+10  -6.648385401451247E-1    3.730270047113202E-1
 1.248000000000000E+10  -6.184777288349450E-1    4.396590227329170E-1
 1.249000000000000E+10  -5.633808468459987E-1    5.024260504079592E-1
 1.250000000000000E+10  -5.004139865935278E-1    5.600838967429372E-1
