#  HZ   S   RI   R     50.00 
! Rohde & Schwarz Vector Network Analyzer 
! Rohde-Schwarz,ZNA43-4Port,1332450044101932,2.92
! Created: UTC 6/1/2026, 11:35:14 AM
! freq[Hz]                re:S11                  im:S11
 8.000000000000000E9    -9.545458067960110E-1   -1.165737530723754E-2
 8.010000000000000E9    -9.445741480075615E-1    1.588312409079398E-1
 8.020000000000000E9    -9.092681255716650E-1    3.126469172963753E-1
 8.030000000000000E9    -8.548340476545885E-1    4.479155724913044E-1
 8.040000000000000E9    -7.859897289435526E-1    5.650160699812404E-1
 8.050000000000000E9    -7.065355872804190E-1    6.646465823191965E-1
 8.060000000000000E9    -6.188887567290664E-1    7.475068634303101E-1
 8.070000000000000E9    -5.260456580847592E-1    8.154623272072085E-1
 8.080000000000000E9    -4.301108086606880E-1    8.696780817477050E-1
 8.090000000000000E9    -3.326035792205428E-1    9.112192743384535E-1
 8.100000000000000E9    -2.350318222621332E-1    9.417265298984171E-1
 8.110000000000000E9    -1.390741384664051E-1    9.621891347876180E-1
 8.120000000000000E9    -4.551222825879825E-2    9.729109917791078E-1
 8.130000000000000E9     4.551190383140213E-2    9.746186146304773E-1
 8.140000000000000E9     1.334402891755492E-1    9.680194844925208E-1
 8.150000000000000E9     2.185974874667342E-1    9.532165436204647E-1
 8.160000000000000E9     3.004564390833380E-1    9.305211222696737E-1
 8.170000000000000E9     3.795115655632623E-1    9.004531908896041E-1
 8.180000000000000E9     4.552583531557585E-1    8.633433210776829E-1
 8.190000000000000E9     5.277206284530520E-1    8.202129478981475E-1
 8.200000000000000E9     5.961156709322718E-1    7.713811686251234E-1
 8.210000000000000E9     6.603833375700069E-1    7.178742792235829E-1
 8.220000000000000E9     7.197731197012052E-1    6.597160828069680E-1
 8.230000000000000E9     7.737190469336209E-1    5.974028499100460E-1
 8.240000000000000E9     8.219194161215762E-1    5.305804346533164E-1
 8.250000000000000E9     8.641807277510245E-1    4.597547875466737E-1
 8.260000000000000E9     8.999803908107948E-1    3.843603673415722E-1
 8.270000000000000E9     9.289685781001669E-1    3.043234931054425E-1
 8.280000000000000E9     9.509851442282834E-1    2.198661269760046E-1
 8.290000000000000E9     9.654448852109491E-1    1.309877385889233E-1
 8.300000000000000E9     9.715970663179686E-1    3.912162317866444E-2
 8.310000000000000E9     9.682023251718278E-1   -5.494382848745707E-2
 8.320000000000000E9     9.507773727444593E-1   -1.469358027031585E-1
 8.330000000000000E9     9.340847494916856E-1   -2.232794813634851E-1
 8.340000000000000E9     9.181152668786047E-1   -3.150854261843220E-1
 8.350000000000000E9     8.847557126768189E-1   -4.072901336203666E-1
 8.360000000000000E9     8.389608751721866E-1   -4.958231881680589E-1
 8.370000000000000E9     7.815714595172188E-1   -5.803094521763762E-1
 8.380000000000000E9     7.130023140363166E-1   -6.601446096298137E-1
 8.390000000000000E9     6.335124557816777E-1   -7.341475486215902E-1
 8.400000000000000E9     5.436087476405105E-1   -8.010145611053826E-1
 8.410000000000000E9     4.444065194893062E-1   -8.592488043122941E-1
 8.420000000000000E9     3.374040665895557E-1   -9.067923254287866E-1
 8.430000000000000E9     2.239910556383310E-1   -9.418670705179327E-1
 8.440000000000000E9     1.057966968791812E-1   -9.631317919328819E-1
 8.450000000000000E9    -1.544571628366077E-2   -9.692282433263731E-1
 8.460000000000000E9    -1.383224292421159E-1   -9.587094321719447E-1
 8.470000000000000E9    -2.614902591765340E-1   -9.310913521402252E-1
 8.480000000000000E9    -3.826164785023353E-1   -8.858452377204509E-1
 8.490000000000000E9    -4.994536944879556E-1   -8.230184365093932E-1
 8.500000000000000E9    -6.090264505912427E-1   -7.435550882715588E-1
 8.510000000000000E9    -7.078356146551382E-1   -6.489832004279025E-1
 8.520000000000000E9    -7.933796229077383E-1   -5.417353893455230E-1
 8.530000000000000E9    -8.631671810372690E-1   -4.244464243595594E-1
 8.540000000000000E9    -9.154520461476240E-1   -2.996957070006179E-1
 8.550000000000000E9    -9.490421298716246E-1   -1.701505406181937E-1
 8.560000000000000E9    -9.634979594204043E-1   -3.802512609489105E-2
 8.570000000000000E9    -9.587216057597181E-1    9.440271354998758E-2
 8.580000000000000E9    -9.352496484815116E-1    2.247468310628313E-1
 8.590000000000000E9    -8.941929190985863E-1    3.507010643476516E-1
 8.600000000000000E9    -8.369519970783792E-1    4.697973295031871E-1
 8.610000000000000E9    -7.655421972414355E-1    5.794749621085072E-1
 8.620000000000000E9    -6.821590190885058E-1    6.776665351671252E-1
 8.630000000000000E9    -5.890312170210896E-1    7.627343011323667E-1
 8.640000000000000E9    -4.876731327041522E-1    8.333935541957487E-1
 8.650000000000000E9    -3.799933994124624E-1    8.890344407160946E-1
 8.660000000000000E9    -2.678730566028212E-1    9.293315855845822E-1
 8.670000000000000E9    -1.523274171544241E-1    9.544084344307276E-1
 8.680000000000000E9    -3.493884056998791E-2    9.645779294681706E-1
 8.690000000000000E9     8.259864123228280E-2    9.606962475224465E-1
 8.700000000000000E9     1.985312162952509E-1    9.429859385163508E-1
 8.710000000000000E9     3.112640893380144E-1    9.122889994447134E-1
 8.720000000000000E9     4.182946320210861E-1    8.697504748560160E-1
 8.730000000000000E9     5.183566011676825E-1    8.161410188569266E-1
 8.740000000000000E9     6.101615422985301E-1    7.521745790956198E-1
 8.750000000000000E9     6.928065157842679E-1    6.785287318509265E-1
 8.760000000000000E9     7.654133550995881E-1    5.954451118366133E-1
 8.770000000000000E9     8.276264046287671E-1    5.040295991456971E-1
 8.780000000000000E9     8.787234411930487E-1    4.045131266470503E-1
 8.790000000000000E9     9.182333634596886E-1    2.982430363524228E-1
 8.800000000000000E9     9.459120009770866E-1    1.869761374656615E-1
 8.810000000000000E9     9.608911442520836E-1    7.233594201812343E-2
 8.820000000000000E9     9.629280249327695E-1   -4.351349122988537E-2
 8.830000000000000E9     9.516970384740805E-1   -1.588867068171043E-1
 8.840000000000000E9     9.269505598868397E-1   -2.714791398276225E-1
 8.850000000000000E9     8.885807141759001E-1   -3.801230101175977E-1
 8.860000000000000E9     8.366168718040581E-1   -4.832173747838258E-1
 8.870000000000000E9     7.713427050737777E-1   -5.798348195053269E-1
 8.880000000000000E9     6.934276062907770E-1   -6.686516538598957E-1
 8.890000000000000E9     6.037835349900030E-1   -7.481852768180742E-1
 8.900000000000000E9     5.035902250211783E-1   -8.173872636506094E-1
 8.910000000000000E9     3.950404099167721E-1   -8.742908988158995E-1
 8.920000000000000E9     2.802182364672356E-1   -9.177871595793450E-1
 8.930000000000000E9     1.612055623726914E-1   -9.464800257975211E-1
 8.940000000000000E9     4.022773785046149E-2   -9.599299052133331E-1
 8.950000000000000E9    -8.035333357092883E-2   -9.576489239796537E-1
 8.960000000000000E9    -1.989802715479193E-1   -9.394662695792899E-1
 8.970000000000000E9    -3.140363524241298E-1   -9.062780414649859E-1
 8.980000000000000E9    -4.240369016822502E-1   -8.586911825655567E-1
 8.990000000000000E9    -5.276068931687111E-1   -7.979024763210951E-1
 9.000000000000000E9    -6.224586997705501E-1   -7.250758520185902E-1
 9.010000000000000E9    -7.079461297216126E-1   -6.424988524589984E-1
 9.020000000000000E9    -7.823473997920806E-1   -5.517203248699435E-1
 9.030000000000000E9    -8.441927286136646E-1   -4.547362484243484E-1
 9.040000000000000E9    -8.928315371379622E-1   -3.539027931161841E-1
 9.050000000000000E9    -9.282947023431393E-1   -2.503260635280989E-1
 9.060000000000000E9    -9.507863348892843E-1   -1.457379219180386E-1
 9.070000000000000E9    -9.604712478721114E-1   -4.089853418726286E-2
 9.080000000000000E9    -9.584380402557566E-1    6.288081031368790E-2
 9.090000000000000E9    -9.454099976431576E-1    1.649409199749603E-1
 9.100000000000000E9    -9.223203532567320E-1    2.644146982197483E-1
 9.110000000000000E9    -8.900271609438015E-1    3.598606018408861E-1
 9.120000000000000E9    -8.494867669162778E-1    4.501227298490223E-1
 9.130000000000000E9    -8.016375021464753E-1    5.340460204199381E-1
 9.140000000000000E9    -7.473941769745608E-1    6.106469834162420E-1
 9.150000000000000E9    -6.876778979022382E-1    6.793241148731652E-1
 9.160000000000000E9    -6.234394150418059E-1    7.399532779888135E-1
 9.170000000000000E9    -5.552246481432495E-1    7.927236004999428E-1
 9.180000000000000E9    -4.834951241625894E-1    8.379896671910008E-1
 9.190000000000000E9    -4.089836832088844E-1    8.763289192133887E-1
 9.200000000000000E9    -3.319376716350385E-1    9.081531442405569E-1
 9.210000000000000E9    -2.529879880363043E-1    9.336534450129332E-1
 9.220000000000000E9    -1.726743084362357E-1    9.525663236438535E-1
 9.230000000000000E9    -9.200373896922225E-2    9.651291634207027E-1
 9.240000000000000E9    -1.140954229932945E-2    9.708045818924101E-1
 9.250000000000000E9     6.827202751728186E-2    9.697576941923383E-1
 9.260000000000000E9     1.459271377545733E-1    9.620407683175303E-1
 9.270000000000000E9     2.215596458579748E-1    9.479548510041522E-1
 9.280000000000000E9     2.949232389447412E-1    9.277890255560763E-1
 9.290000000000000E9     3.659679854750360E-1    9.017988006402247E-1
 9.300000000000000E9     4.348928495091349E-1    8.704740123114418E-1
 9.310000000000000E9     5.016156995159464E-1    8.337287221578935E-1
 9.320000000000000E9     5.659370571839206E-1    7.919411802070548E-1
 9.330000000000000E9     6.275664493870793E-1    7.451097862558010E-1
 9.340000000000000E9     6.859954320785641E-1    6.932992279411497E-1
 9.350000000000000E9     7.403309869311123E-1    6.366045611599636E-1
 9.360000000000000E9     7.899309957431677E-1    5.750592241408548E-1
 9.370000000000000E9     8.342879681157372E-1    5.093544971923395E-1
 9.380000000000000E9     8.730553486419829E-1    4.395727973469753E-1
 9.390000000000000E9     9.057528462025600E-1    3.660935944889806E-1
 9.400000000000000E9     9.326892708903757E-1    2.889689305325628E-1
 9.410000000000000E9     9.532111672811330E-1    2.085340185296160E-1
 9.420000000000000E9     9.675325873072311E-1    1.248763009073011E-1
 9.430000000000000E9     9.748897705418963E-1    3.781411713340548E-2
 9.440000000000000E9     9.742302917871446E-1   -5.217590817073114E-2
 9.450000000000000E9     9.646903241814349E-1   -1.444966780232746E-1
 9.460000000000000E9     9.453759798511668E-1   -2.382330313906158E-1
 9.470000000000000E9     9.154580272730124E-1   -3.327433007582551E-1
 9.480000000000000E9     8.744472156848309E-1   -4.261248959202914E-1
 9.490000000000000E9     8.218227280580886E-1   -5.171020032813857E-1
 9.500000000000000E9     7.580403370159234E-1   -6.045510672144170E-1
 9.510000000000000E9     6.821660789600044E-1   -6.863692306917536E-1
 9.520000000000000E9     5.941057899493835E-1   -7.613452353571947E-1
 9.530000000000000E9     4.945676694706626E-1   -8.276142799118279E-1
 9.540000000000000E9     3.836179771539448E-1   -8.828659930997446E-1
 9.550000000000000E9     2.617415682275948E-1   -9.243033309984681E-1
 9.560000000000000E9     1.306341150907156E-1   -9.490512879384596E-1
 9.570000000000000E9    -7.477926023036752E-3   -9.545279390422774E-1
 9.580000000000000E9    -1.490962318608549E-1   -9.389053737398153E-1
 9.590000000000000E9    -2.900483244444866E-1   -9.009436595528065E-1
 9.600000000000000E9    -4.261468234320027E-1   -8.404186856069841E-1
 9.610000000000000E9    -5.531063305346861E-1   -7.584413370440338E-1
 9.620000000000000E9    -6.664326468328930E-1   -6.568057820141846E-1
 9.630000000000000E9    -7.624701451398890E-1   -5.376821431205699E-1
 9.640000000000000E9    -8.382651184229337E-1   -4.046979545393627E-1
 9.650000000000000E9    -8.907356213144211E-1   -2.613690395299593E-1
 9.660000000000000E9    -9.185499223891935E-1   -1.129473311403437E-1
 9.670000000000000E9    -9.219574617583194E-1    3.580489582091648E-2
 9.680000000000000E9    -9.022987736092467E-1    1.799219457408694E-1
 9.690000000000000E9    -8.621299023448629E-1    3.156506933727182E-1
 9.700000000000000E9    -8.044384671628677E-1    4.398679549913135E-1
 9.710000000000000E9    -7.326295573146658E-1    5.503200638784312E-1
 9.720000000000000E9    -6.497180612679812E-1    6.463299247859556E-1
 9.730000000000000E9    -5.585733441450288E-1    7.268906062911691E-1
 9.740000000000000E9    -4.615539083667161E-1    7.922589984725601E-1
 9.750000000000000E9    -3.609110252074691E-1    8.427323190145193E-1
 9.760000000000000E9    -2.585883020395227E-1    8.791617731786884E-1
 9.770000000000000E9    -1.564894278077456E-1    9.023875712375742E-1
 9.780000000000000E9    -5.657671374236054E-2    9.135413241160617E-1
 9.790000000000000E9     4.002484804999291E-2    9.142551310927767E-1
 9.800000000000000E9     1.320669314244073E-1    9.059109015441200E-1
 9.810000000000000E9     2.190095525058807E-1    8.897075479937323E-1
 9.820000000000000E9     3.003295102692959E-1    8.669565637096276E-1
 9.830000000000000E9     3.763818419546335E-1    8.378905947538735E-1
 9.840000000000000E9     4.470986431513203E-1    8.032679109313288E-1
 9.850000000000000E9     5.125984582578134E-1    7.634207607398615E-1
 9.860000000000000E9     5.728192621746303E-1    7.185537315673088E-1
 9.870000000000000E9     6.278321593783043E-1    6.694833724442402E-1
 9.880000000000000E9     6.779407468903378E-1    6.171061403873014E-1
 9.890000000000000E9     7.229149411519387E-1    5.623412678363572E-1
 9.900000000000000E9     7.629314083928818E-1    5.060278809952734E-1
 9.910000000000000E9     7.982187964435826E-1    4.488581616932028E-1
 9.920000000000000E9     8.287736795650422E-1    3.912527990295461E-1
 9.930000000000000E9     8.546411467782116E-1    3.334037539339332E-1
 9.940000000000000E9     8.758882254919028E-1    2.752408664681362E-1
 9.950000000000000E9     8.924913917162761E-1    2.165466294601853E-1
 9.960000000000000E9     9.045149773164770E-1    1.571023411802135E-1
 9.970000000000000E9     9.119646358907477E-1    9.685066684557439E-2
 9.980000000000000E9     9.151826068065781E-1    3.571635780491816E-2
 9.990000000000000E9     9.141812253870978E-1   -2.568976482911380E-2
 1.000000000000000E+10   9.096884509619667E-1   -8.690227455045867E-2
 1.001000000000000E+10   9.018225857834856E-1   -1.474974970543106E-1
 1.002000000000000E+10   8.907038699158595E-1   -2.068669155989415E-1
 1.003000000000000E+10   8.765600039246830E-1   -2.646677622890270E-1
 1.004000000000000E+10   8.591765817824922E-1   -3.208269315746284E-1
 1.005000000000000E+10   8.383426494456118E-1   -3.755450747888615E-1
 1.006000000000000E+10   8.135350138116973E-1   -4.290825724983594E-1
 1.007000000000000E+10   7.843525825849481E-1   -4.813161015005555E-1
 1.008000000000000E+10   7.502410747453285E-1   -5.325764271449843E-1
 1.009000000000000E+10   7.113261059795644E-1   -5.830184023959345E-1
 1.010000000000000E+10   6.677427260350267E-1   -6.319832765078774E-1
 1.011000000000000E+10   6.196907006705719E-1   -6.792458709592111E-1
 1.012000000000000E+10   5.682427415968141E-1   -7.240983542538126E-1
 1.013000000000000E+10   5.134929285979929E-1   -7.660373588970982E-1
 1.014000000000000E+10   4.556687226816334E-1   -8.043546484786761E-1
 1.015000000000000E+10   3.951745082660707E-1   -8.385794547826654E-1
 1.016000000000000E+10   3.312009883639725E-1   -8.681753877006356E-1
 1.017000000000000E+10   2.632758450693486E-1   -8.926875497930816E-1
 1.018000000000000E+10   1.911176452347302E-1   -9.114560726542245E-1
 1.019000000000000E+10   1.144513121932379E-1   -9.240858711545705E-1
 1.020000000000000E+10   3.300316119115008E-2   -9.300458595924200E-1
 1.021000000000000E+10  -5.246529964421477E-2   -9.288654282274660E-1
 1.022000000000000E+10  -1.410136540976527E-1   -9.196417605559958E-1
 1.023000000000000E+10  -2.308590314550032E-1   -9.023115806164042E-1
 1.024000000000000E+10  -3.207803459887460E-1   -8.764849888285746E-1
 1.025000000000000E+10  -4.089391466552143E-1   -8.413942608343338E-1
 1.026000000000000E+10  -4.943229877035141E-1   -7.968907327629829E-1
 1.027000000000000E+10  -5.758615864332316E-1   -7.422872561789599E-1
 1.028000000000000E+10  -6.526353953734425E-1   -6.766453106890684E-1
 1.029000000000000E+10  -7.237351823672141E-1   -5.992236781990961E-1
 1.030000000000000E+10  -7.881008228577472E-1   -5.099222252906999E-1
 1.031000000000000E+10  -8.437544277209874E-1   -4.090633575502347E-1
 1.032000000000000E+10  -8.887276002388058E-1   -2.977923700642505E-1
 1.033000000000000E+10  -9.209709889033854E-1   -1.785037120030051E-1
 1.034000000000000E+10  -9.387268096586447E-1   -5.377624157987953E-2
 1.035000000000000E+10  -9.402963619822197E-1    7.391572259317011E-2
 1.036000000000000E+10  -9.247176499589471E-1    2.011105017504418E-1
 1.037000000000000E+10  -8.912406516597539E-1    3.256469255580463E-1
 1.038000000000000E+10  -8.399228065314646E-1    4.448188468145812E-1
 1.039000000000000E+10  -7.706774832511151E-1    5.566101658866707E-1
 1.040000000000000E+10  -6.851257293385749E-1    6.587042645737594E-1
 1.041000000000000E+10  -5.847505727037432E-1    7.491318168446104E-1
 1.042000000000000E+10  -4.720326609694120E-1    8.256211431059193E-1
 1.043000000000000E+10  -3.502637135970107E-1    8.860705523565573E-1
 1.044000000000000E+10  -2.229505813285067E-1    9.293131203222585E-1
 1.045000000000000E+10  -9.408482850112050E-2    9.545394864163674E-1
 1.046000000000000E+10   3.376208454568482E-2    9.617940314030315E-1
 1.047000000000000E+10   1.576978109105314E-1    9.519895687349411E-1
 1.048000000000000E+10   2.762849623068470E-1    9.263882902923941E-1
 1.049000000000000E+10   3.886000643808697E-1    8.856287662798770E-1
 1.050000000000000E+10   4.934167368188550E-1    8.318814582384673E-1
 1.051000000000000E+10   5.896489478158439E-1    7.667304569381821E-1
 1.052000000000000E+10   6.765682642887587E-1    6.918825005309373E-1
 1.053000000000000E+10   7.531304674550316E-1    6.097868436874208E-1
 1.054000000000000E+10   8.184460707165238E-1    5.227080783995172E-1
 1.055000000000000E+10   8.720589229179376E-1    4.323924496613588E-1
 1.056000000000000E+10   9.142010431215543E-1    3.406170618902495E-1
 1.057000000000000E+10   9.447463111092934E-1    2.477251754281988E-1
 1.058000000000000E+10   9.644490690106611E-1    1.549228301370742E-1
 1.059000000000000E+10   9.743400490941369E-1    6.244396942603631E-2
 1.060000000000000E+10   9.747119164876609E-1   -2.974254875789762E-2
 1.061000000000000E+10   9.665118872303025E-1   -1.211173054685871E-1
 1.062000000000000E+10   9.503734346559927E-1   -2.110524358055256E-1
 1.063000000000000E+10   9.271769229853818E-1   -2.980647895853696E-1
 1.064000000000000E+10   8.976512690477304E-1   -3.816924178160396E-1
 1.065000000000000E+10   8.618267807909114E-1   -4.603497203875488E-1
 1.066000000000000E+10   8.205455799141318E-1   -5.334981890554373E-1
 1.067000000000000E+10   7.744694032771683E-1   -6.001520664832564E-1
 1.068000000000000E+10   7.233634833768851E-1   -6.608051129618820E-1
 1.069000000000000E+10   6.675739243637387E-1   -7.157868767365991E-1
 1.070000000000000E+10   6.070097961055735E-1   -7.655113819332038E-1
 1.071000000000000E+10   5.413932243748301E-1   -8.103254422337239E-1
 1.072000000000000E+10   4.717633561114688E-1   -8.504357911924078E-1
 1.073000000000000E+10   3.983289668397582E-1   -8.856411865124920E-1
 1.074000000000000E+10   3.225097597881399E-1   -9.156126870546113E-1
 1.075000000000000E+10   2.450656376904536E-1   -9.397945231324490E-1
 1.076000000000000E+10   1.670025869022059E-1   -9.577885516671036E-1
 1.077000000000000E+10   8.902608957557863E-2   -9.689145843989503E-1
 1.078000000000000E+10   1.200813928194862E-2   -9.734622233358896E-1
 1.079000000000000E+10  -6.415385398765273E-2   -9.705726267611781E-1
 1.080000000000000E+10  -1.396408218965209E-1   -9.609364805767232E-1
 1.081000000000000E+10  -2.149800464452067E-1   -9.442617822323806E-1
 1.082000000000000E+10  -2.898931721586260E-1   -9.209038650960975E-1
 1.083000000000000E+10  -3.647294371011188E-1   -8.910610064134012E-1
 1.084000000000000E+10  -4.385607582021013E-1   -8.547839692278069E-1
 1.085000000000000E+10  -5.105506734112173E-1   -8.128100320978029E-1
 1.086000000000000E+10  -5.794870469387662E-1   -7.649445743158203E-1
 1.087000000000000E+10  -6.439397012548227E-1   -7.119089292318183E-1
 1.088000000000000E+10  -7.030451911931233E-1   -6.540359084962133E-1
 1.089000000000000E+10  -7.560196617439022E-1   -5.913362758611551E-1
 1.090000000000000E+10  -8.026184345545212E-1   -5.241106023298410E-1
 1.091000000000000E+10  -8.426202083274168E-1   -4.522881590799564E-1
 1.092000000000000E+10  -8.764674435749287E-1   -3.760011729175216E-1
 1.093000000000000E+10  -9.039298174985448E-1   -2.950264434694365E-1
 1.094000000000000E+10  -9.248541977581487E-1   -2.100358969913834E-1
 1.095000000000000E+10  -9.387814863538507E-1   -1.215795002693933E-1
 1.096000000000000E+10  -9.451404192326802E-1   -3.080421419359792E-2
 1.097000000000000E+10  -9.431719402638503E-1    6.084721250493225E-2
 1.098000000000000E+10  -9.327106005757757E-1    1.518695524563848E-1
 1.099000000000000E+10  -9.134362219271311E-1    2.407940969651222E-1
 1.100000000000000E+10  -8.852824757668059E-1    3.268143380123615E-1
 1.101000000000000E+10  -8.487537015948152E-1    4.092520660650042E-1
 1.102000000000000E+10  -8.038370524146037E-1    4.880844743182279E-1
 1.103000000000000E+10  -7.506701489984249E-1    5.631622091690091E-1
 1.104000000000000E+10  -6.895961451961943E-1    6.338999741044751E-1
 1.105000000000000E+10  -6.210040732909661E-1    6.997141125216020E-1
 1.106000000000000E+10  -5.455162444029902E-1    7.595085550002872E-1
 1.107000000000000E+10  -4.638374283017768E-1    8.119702664552990E-1
 1.108000000000000E+10  -3.771195540702801E-1    8.563140550721117E-1
 1.109000000000000E+10  -2.869069399001969E-1    8.910720366062065E-1
 1.110000000000000E+10  -1.937575676124954E-1    9.159297994110065E-1
 1.111000000000000E+10  -9.943057137354831E-2    9.302860231282543E-1
 1.112000000000000E+10  -4.581850161060777E-3    9.348388881239060E-1
 1.113000000000000E+10   9.003808379781306E-2    9.297809963151851E-1
 1.114000000000000E+10   1.840121646677013E-1    9.153804612724933E-1
 1.115000000000000E+10   2.765689695637479E-1    8.919100292045946E-1
 1.116000000000000E+10   3.669773625412061E-1    8.598709742457636E-1
 1.117000000000000E+10   4.541880820858616E-1    8.190705695016745E-1
 1.118000000000000E+10   5.364370339279146E-1    7.697106342395471E-1
 1.119000000000000E+10   6.126832037827427E-1    7.126220610993399E-1
 1.120000000000000E+10   6.818863392369470E-1    6.487425265238207E-1
 1.121000000000000E+10   7.432696244283364E-1    5.784128551458786E-1
 1.122000000000000E+10   7.966821731554461E-1    5.027870667533394E-1
 1.123000000000000E+10   8.420542501667446E-1    4.224898331351626E-1
 1.124000000000000E+10   8.796402117543854E-1    3.382383132487687E-1
 1.125000000000000E+10   9.091974451207309E-1    2.507014604171748E-1
 1.126000000000000E+10   9.306580612828182E-1    1.607873444567390E-1
 1.127000000000000E+10   9.438900497008651E-1    6.903654754739330E-2
 1.128000000000000E+10   9.485392661875425E-1   -2.321029865728010E-2
 1.129000000000000E+10   9.439331174338697E-1   -1.150520853715665E-1
 1.130000000000000E+10   9.305900064582989E-1   -2.053210941407236E-1
 1.131000000000000E+10   9.081982681365557E-1   -2.933270039996352E-1
 1.132000000000000E+10   8.775458720642588E-1   -3.778293792942767E-1
 1.133000000000000E+10   8.388657325699658E-1   -4.584996791933266E-1
 1.134000000000000E+10   7.929404182201694E-1   -5.349985848743066E-1
 1.135000000000000E+10   7.401534826294733E-1   -6.073158124944129E-1
 1.136000000000000E+10   6.809210457130073E-1   -6.748432386352242E-1
 1.137000000000000E+10   6.153794585318432E-1   -7.372187000885351E-1
 1.138000000000000E+10   5.439244680972681E-1   -7.937220988274940E-1
 1.139000000000000E+10   4.671509640581213E-1   -8.432580061430902E-1
 1.140000000000000E+10   3.857377709196711E-1   -8.849848980685679E-1
 1.141000000000000E+10   3.002118680724810E-1   -9.185176511559191E-1
 1.142000000000000E+10   2.118174312340573E-1   -9.430337875942032E-1
 1.143000000000000E+10   1.213706885766332E-1   -9.589140233234373E-1
 1.144000000000000E+10   3.001871342694365E-2   -9.662478307948342E-1
 1.145000000000000E+10  -6.170652580632349E-2   -9.650275264830054E-1
 1.146000000000000E+10  -1.539083817920963E-1   -9.554215120405389E-1
 1.147000000000000E+10  -2.451402440604907E-1   -9.372429657532035E-1
 1.148000000000000E+10  -3.348466987385108E-1   -9.098753350841469E-1
 1.149000000000000E+10  -4.221235916960180E-1   -8.740039811482867E-1
 1.150000000000000E+10  -5.059089007549648E-1   -8.285086811313548E-1
 1.151000000000000E+10  -5.848602218889466E-1   -7.742759425822566E-1
 1.152000000000000E+10  -6.581109410695197E-1   -7.121723360001817E-1
 1.153000000000000E+10  -7.251448547069577E-1   -6.424835157975776E-1
 1.154000000000000E+10  -7.849240247986883E-1   -5.660510527639286E-1
 1.155000000000000E+10  -8.370210371593656E-1   -4.837540865797966E-1
 1.156000000000000E+10  -8.807422585158774E-1   -3.968139987500852E-1
 1.157000000000000E+10  -9.163105932695829E-1   -3.055326722311302E-1
 1.158000000000000E+10  -9.427313276810290E-1   -2.107139590483014E-1
 1.159000000000000E+10  -9.593493391717667E-1   -1.132269666617051E-1
 1.160000000000000E+10  -9.654287785468990E-1   -1.328384015739799E-2
 1.161000000000000E+10  -9.607334673421667E-1    8.727187084559669E-2
 1.162000000000000E+10  -9.445551135575515E-1    1.877298853176318E-1
 1.163000000000000E+10  -9.175483448687191E-1    2.859653609688816E-1
 1.164000000000000E+10  -8.802905952984746E-1    3.809110103275987E-1
 1.165000000000000E+10  -8.337555206491717E-1    4.715463947932506E-1
 1.166000000000000E+10  -7.788551942690416E-1    5.563422962502153E-1
 1.167000000000000E+10  -7.160636221338381E-1    6.349027169872549E-1
 1.168000000000000E+10  -6.459797873156128E-1    7.061346762634850E-1
 1.169000000000000E+10  -5.688604840963842E-1    7.693314916514572E-1
 1.170000000000000E+10  -4.852385359708837E-1    8.238670984718925E-1
 1.171000000000000E+10  -3.962708707398951E-1    8.687183569697280E-1
 1.172000000000000E+10  -3.027896043103555E-1    9.035407762224819E-1
 1.173000000000000E+10  -2.059300662974039E-1    9.282099196462670E-1
 1.174000000000000E+10  -1.068820583275408E-1    9.426207683746424E-1
 1.175000000000000E+10  -7.431107612935878E-3    9.470228451858727E-1
 1.176000000000000E+10   9.079468436027749E-2    9.415839933823870E-1
 1.177000000000000E+10   1.867751523278519E-1    9.269168272059631E-1
 1.178000000000000E+10   2.792723449262389E-1    9.033131524457927E-1
 1.179000000000000E+10   3.674163181367769E-1    8.712910151435898E-1
 1.180000000000000E+10   4.506759602145231E-1    8.309677746578006E-1
 1.181000000000000E+10   5.284467002641687E-1    7.827283013498765E-1
 1.182000000000000E+10   6.004915088028552E-1    7.268489437500831E-1
 1.183000000000000E+10   6.662487247551632E-1    6.642189203037147E-1
 1.184000000000000E+10   7.254446567172327E-1    5.960142823099643E-1
 1.185000000000000E+10   7.778753810768918E-1    5.232886277318738E-1
 1.186000000000000E+10   8.230777391973939E-1    4.474344199502379E-1
 1.187000000000000E+10   8.611776799301049E-1    3.689573264048643E-1
 1.188000000000000E+10   8.918337416373702E-1    2.888391046817739E-1
 1.189000000000000E+10   9.149070145805317E-1    2.076915047996811E-1
 1.190000000000000E+10   9.300688092901808E-1    1.257737233960709E-1
 1.191000000000000E+10   9.371366456266708E-1    4.356435637966143E-2
 1.192000000000000E+10   9.363780078519909E-1   -3.842949579091590E-2
 1.193000000000000E+10   9.280813736327000E-1   -1.199916805537781E-1
 1.194000000000000E+10   9.125871777578511E-1   -2.003953571037990E-1
 1.195000000000000E+10   8.906582547284699E-1   -2.790549112396296E-1
 1.196000000000000E+10   8.629768936148370E-1   -3.551820879457305E-1
 1.197000000000000E+10   8.303855526825117E-1   -4.282085920774347E-1
 1.198000000000000E+10   7.927053694475255E-1   -4.969078777359858E-1
 1.199000000000000E+10   7.508821734612480E-1   -5.614354597654527E-1
 1.200000000000000E+10   7.048381971907787E-1   -6.210863515762723E-1
 1.201000000000000E+10   6.540924167112682E-1   -6.757475874824076E-1
 1.202000000000000E+10   5.990785385048683E-1   -7.256572980349915E-1
 1.203000000000000E+10   5.395209318690277E-1   -7.704451999862629E-1
 1.204000000000000E+10   4.755070222089396E-1   -8.102966468580629E-1
 1.205000000000000E+10   4.074772572482198E-1   -8.453345749651976E-1
 1.206000000000000E+10   3.361987652208541E-1   -8.755129137829085E-1
 1.207000000000000E+10   2.627709442705982E-1   -9.005565271439369E-1
 1.208000000000000E+10   1.877786847437893E-1   -9.204216581502991E-1
 1.209000000000000E+10   1.124290988982718E-1   -9.346904869259683E-1
 1.210000000000000E+10   3.717644616518054E-2   -9.430808467266396E-1
 1.211000000000000E+10  -3.782753468079474E-2   -9.452005669392208E-1
 1.212000000000000E+10  -1.122241575254037E-1   -9.407761736235406E-1
 1.213000000000000E+10  -1.862028289782044E-1   -9.296290281101981E-1
 1.214000000000000E+10  -2.596939116616179E-1   -9.114884243454443E-1
 1.215000000000000E+10  -3.325677608003601E-1   -8.869504371998358E-1
 1.216000000000000E+10  -4.045618564686188E-1   -8.560370072821530E-1
 1.217000000000000E+10  -4.750257842868348E-1   -8.192430666815939E-1
 1.218000000000000E+10  -5.432983150163202E-1   -7.769883904517108E-1
 1.219000000000000E+10  -6.084327029082481E-1   -7.296190208347715E-1
 1.220000000000000E+10  -6.695817557364302E-1   -6.774233693289462E-1
 1.221000000000000E+10  -7.257182170013421E-1   -6.205361950889949E-1
 1.222000000000000E+10  -7.765825455571841E-1   -5.586555140492047E-1
 1.223000000000000E+10  -8.214855347366400E-1   -4.919636903887015E-1
 1.224000000000000E+10  -8.605371713222709E-1   -4.204479079200995E-1
 1.225000000000000E+10  -8.932878441739595E-1   -3.437448169171968E-1
 1.226000000000000E+10  -9.197198361034638E-1   -2.623094447507746E-1
 1.227000000000000E+10  -9.390857203513824E-1   -1.771216173387899E-1
 1.228000000000000E+10  -9.516520056422686E-1   -8.924760905566513E-2
 1.229000000000000E+10  -9.570198894753076E-1    4.110049293134352E-4
 1.230000000000000E+10  -9.547414970120434E-1    9.017520416760832E-2
 1.231000000000000E+10  -9.441044000451755E-1    1.795153177058997E-1
 1.232000000000000E+10  -9.251530219526530E-1    2.674184749893961E-1
 1.233000000000000E+10  -8.973023629218725E-1    3.526591809999257E-1
 1.234000000000000E+10  -8.602874964659056E-1    4.358003316190278E-1
 1.235000000000000E+10  -8.135393309658678E-1    5.159140230716510E-1
 1.236000000000000E+10  -7.577140061536458E-1    5.926964977652398E-1
 1.237000000000000E+10  -6.923779606777881E-1    6.651660692298202E-1
 1.238000000000000E+10  -6.189652266494325E-1    7.325347902669948E-1
 1.239000000000000E+10  -5.377554912630196E-1    7.933577359953681E-1
 1.240000000000000E+10  -4.508075523846765E-1    8.462947766123866E-1
 1.241000000000000E+10  -3.592640197890596E-1    8.900723040013622E-1
 1.242000000000000E+10  -2.638416786703587E-1    9.233537851748459E-1
 1.243000000000000E+10  -1.654936516417538E-1    9.453974589382493E-1
 1.244000000000000E+10  -6.528405192165766E-2    9.561915304610570E-1
 1.245000000000000E+10   3.622293889689551E-2    9.549933480328865E-1
 1.246000000000000E+10   1.384021463822241E-1    9.417577586153807E-1
 1.247000000000000E+10   2.398467261753855E-1    9.171953731830930E-1
 1.248000000000000E+10   3.393772972906294E-1    8.813859958179709E-1
 1.249000000000000E+10   4.353659578111944E-1    8.349924461134233E-1
 1.250000000000000E+10   5.254079430901386E-1    7.790270407811303E-1
