#  HZ   S   RI   R     50.00 
! Rohde & Schwarz Vector Network Analyzer 
! Rohde-Schwarz,ZNA43-4Port,1332450044101932,2.92
! Created: UTC 6/1/2026, 11:34:05 AM
! freq[Hz]                re:S11                  im:S11
 8.000000000000000E9     6.384143669529986E-1    4.098343675927478E-1
 8.010000000000000E9     6.689053861000407E-1    3.305908286190827E-1
 8.020000000000000E9     6.891315862169505E-1    2.443675760208294E-1
 8.030000000000000E9     6.976876456668357E-1    1.518925305099025E-1
 8.040000000000000E9     6.927735906310643E-1    5.451377009684958E-2
 8.050000000000000E9     6.729180648334997E-1   -4.547851428807331E-2
 8.060000000000000E9     6.367139330320746E-1   -1.451434145127705E-1
 8.070000000000000E9     5.832568230847233E-1   -2.409003341962804E-1
 8.080000000000000E9     5.119938520450956E-1   -3.286759576946100E-1
 8.090000000000000E9     4.233361130062047E-1   -4.040360119614719E-1
 8.100000000000000E9     3.184624845916814E-1   -4.624626615870268E-1
 8.110000000000000E9     2.001757331527681E-1   -4.997684132439464E-1
 8.120000000000000E9     7.304295490739507E-2   -5.124009415052929E-1
 8.130000000000000E9    -5.690775338154597E-2   -4.981189336350479E-1
 8.140000000000000E9    -1.829181292062929E-1   -4.566828701211936E-1
 8.150000000000000E9    -2.979585832079407E-1   -3.899838857457386E-1
 8.160000000000000E9    -3.956154570189843E-1   -3.015019778714212E-1
 8.170000000000000E9    -4.710707500402623E-1   -1.962841825891592E-1
 8.180000000000000E9    -5.213037903903164E-1   -8.008771463310543E-2
 8.190000000000000E9    -5.452610252086351E-1    4.121797551940205E-2
 8.200000000000000E9    -5.437782304288180E-1    1.621715670734863E-1
 8.210000000000000E9    -5.192224444524358E-1    2.777253083851962E-1
 8.220000000000000E9    -4.749367771029958E-1    3.841668685021830E-1
 8.230000000000000E9    -4.147929048768645E-1    4.784388723116210E-1
 8.240000000000000E9    -3.425092169021601E-1    5.587443099580305E-1
 8.250000000000000E9    -2.619234773130663E-1    6.238725196145021E-1
 8.260000000000000E9    -1.757420175505836E-1    6.736299355948340E-1
 8.270000000000000E9    -8.632525794786697E-2    7.079760125533519E-1
 8.280000000000000E9     4.470806428939738E-3    7.277608839361571E-1
 8.290000000000000E9     9.555183827486295E-2    7.336523831961598E-1
 8.300000000000000E9     1.854913594595747E-1    7.265642834618988E-1
 8.310000000000000E9     2.729963989748942E-1    7.077587703490015E-1
 8.320000000000000E9     3.569359353166752E-1    6.785503269604561E-1
 8.330000000000000E9     4.360035010350254E-1    6.402414684908759E-1
 8.340000000000000E9     5.091922186706914E-1    5.940358048587826E-1
 8.350000000000000E9     5.754596879110908E-1    5.408967494739966E-1
 8.360000000000000E9     6.342152632568819E-1    4.816286784377071E-1
 8.370000000000000E9     6.849564120425404E-1    4.165096920757484E-1
 8.380000000000000E9     7.271104513970583E-1    3.461318294953400E-1
 8.390000000000000E9     7.605966045380118E-1    2.707784455208281E-1
 8.400000000000000E9     7.852858064348136E-1    1.908223785754111E-1
 8.410000000000000E9     8.011376941266107E-1    1.070876510122674E-1
 8.420000000000000E9     8.079941874664351E-1    2.073856596710382E-2
 8.430000000000000E9     8.056725243168485E-1   -6.715324346693277E-2
 8.440000000000000E9     7.941845408917515E-1   -1.550034123165172E-1
 8.450000000000000E9     7.733547643944925E-1   -2.412544183098009E-1
 8.460000000000000E9     7.427946276524794E-1   -3.246036977877129E-1
 8.470000000000000E9     7.023627438884178E-1   -4.042144985498924E-1
 8.480000000000000E9     6.519333019332213E-1   -4.789000539748769E-1
 8.490000000000000E9     5.913692348286975E-1   -5.480745018414477E-1
 8.500000000000000E9     5.208929085629053E-1   -6.109509743985646E-1
 8.510000000000000E9     4.406183173164519E-1   -6.658735706770178E-1
 8.520000000000000E9     3.517114510412691E-1   -7.122635237294634E-1
 8.530000000000000E9     2.560989158834407E-1   -7.484488827809364E-1
 8.540000000000000E9     1.554608277612783E-1   -7.733429436001897E-1
 8.550000000000000E9     5.173670108099665E-2   -7.857425960085693E-1
 8.560000000000000E9    -5.294901199345665E-2   -7.844082862387158E-1
 8.570000000000000E9    -1.566473022008438E-1   -7.688452022708766E-1
 8.580000000000000E9    -2.578689807854753E-1   -7.385455453291510E-1
 8.590000000000000E9    -3.546676593407280E-1   -6.935160883764830E-1
 8.600000000000000E9    -4.455541487482558E-1   -6.340653518217635E-1
 8.610000000000000E9    -5.287602544658800E-1   -5.612444250426882E-1
 8.620000000000000E9    -6.022984501978906E-1   -4.766681892095772E-1
 8.630000000000000E9    -6.643926855742620E-1   -3.823267991027620E-1
 8.640000000000000E9    -7.133246379028990E-1   -2.805257464101018E-1
 8.650000000000000E9    -7.476915999313815E-1   -1.736449989117796E-1
 8.660000000000000E9    -7.664896759832174E-1   -6.419098433336570E-2
 8.670000000000000E9    -7.691085391592704E-1    4.568583929030819E-2
 8.680000000000000E9    -7.555226423311112E-1    1.538855520593485E-1
 8.690000000000000E9    -7.261383573465232E-1    2.586936893240225E-1
 8.700000000000000E9    -6.816583852992253E-1    3.584558379295667E-1
 8.710000000000000E9    -6.233747607940986E-1    4.514519349973491E-1
 8.720000000000000E9    -5.528949586508963E-1    5.357292378890935E-1
 8.730000000000000E9    -4.724824021783977E-1    6.096546200340515E-1
 8.740000000000000E9    -3.841162871277512E-1    6.716648762591978E-1
 8.750000000000000E9    -2.897194124568127E-1    7.206954429211747E-1
 8.760000000000000E9    -1.910563928695879E-1    7.557315462596507E-1
 8.770000000000000E9    -8.990469508089638E-2    7.763306105242473E-1
 8.780000000000000E9     1.279414616423173E-2    7.821570927153039E-1
 8.790000000000000E9     1.156089897988574E-1    7.731986471027950E-1
 8.800000000000000E9     2.168233754950978E-1    7.500658255074923E-1
 8.810000000000000E9     3.149924108818516E-1    7.130130608876106E-1
 8.820000000000000E9     4.082151027736437E-1    6.631890321293800E-1
 8.830000000000000E9     4.947218380593673E-1    6.015874270879993E-1
 8.840000000000000E9     5.722248404601373E-1    5.292278143179798E-1
 8.850000000000000E9     6.391958469200797E-1    4.474439538852018E-1
 8.860000000000000E9     6.935720691705098E-1    3.575662485544055E-1
 8.870000000000000E9     7.347490170691477E-1    2.606819665319691E-1
 8.880000000000000E9     7.613598334214580E-1    1.582540104105109E-1
 8.890000000000000E9     7.726311255081338E-1    5.138897028603417E-2
 8.900000000000000E9     7.684942232797525E-1   -5.805819140207159E-2
 8.910000000000000E9     7.484132213339239E-1   -1.676578608534573E-1
 8.920000000000000E9     7.124787419408432E-1   -2.749404469070711E-1
 8.930000000000000E9     6.612382542405911E-1   -3.769674326322116E-1
 8.940000000000000E9     5.956159478013564E-1   -4.706714146443944E-1
 8.950000000000000E9     5.169579325349546E-1   -5.529367503228789E-1
 8.960000000000000E9     4.270837071070982E-1   -6.214760206435849E-1
 8.970000000000000E9     3.281779655968016E-1   -6.744240389970015E-1
 8.980000000000000E9     2.227713289881117E-1   -7.107825153045731E-1
 8.990000000000000E9     1.138468495975689E-1   -7.304142434980554E-1
 9.000000000000000E9     4.461944105337609E-3   -7.336243104743208E-1
 9.010000000000000E9    -1.028026173996703E-1   -7.225394864750947E-1
 9.020000000000000E9    -2.059355864370345E-1   -6.990625635409806E-1
 9.030000000000000E9    -3.036805600316657E-1   -6.649148748379550E-1
 9.040000000000000E9    -3.954590085951970E-1   -6.212855136735660E-1
 9.050000000000000E9    -4.813209916491444E-1   -5.681918015707177E-1
 9.060000000000000E9    -5.602113272176045E-1   -5.053277001246108E-1
 9.070000000000000E9    -6.306231083921967E-1   -4.320521172639165E-1
 9.080000000000000E9    -6.908992756511729E-1   -3.490703701462208E-1
 9.090000000000000E9    -7.395541229382075E-1   -2.575681576089523E-1
 9.100000000000000E9    -7.758722310100757E-1   -1.593415544052604E-1
 9.110000000000000E9    -7.989302435440852E-1   -5.678360244600347E-2
 9.120000000000000E9    -8.086822511558497E-1    4.740726455414537E-2
 9.130000000000000E9    -8.054449664935175E-1    1.506663816427320E-1
 9.140000000000000E9    -7.896766596202277E-1    2.506371702607521E-1
 9.150000000000000E9    -7.624009465138499E-1    3.453591709146431E-1
 9.160000000000000E9    -7.247226617991196E-1    4.333032165106870E-1
 9.170000000000000E9    -6.778724393580705E-1    5.138119951198702E-1
 9.180000000000000E9    -6.228175404072941E-1    5.864674730259096E-1
 9.190000000000000E9    -5.610461219273046E-1    6.513519918629133E-1
 9.200000000000000E9    -4.934031351961575E-1    7.085900571032547E-1
 9.210000000000000E9    -4.209331112232946E-1    7.582954977900512E-1
 9.220000000000000E9    -3.444869350051349E-1    8.002101443349142E-1
 9.230000000000000E9    -2.654468448725271E-1    8.341669042262031E-1
 9.240000000000000E9    -1.844175230494272E-1    8.599043244385599E-1
 9.250000000000000E9    -1.026308948544878E-1    8.772548619946486E-1
 9.260000000000000E9    -2.126947661377423E-2    8.861583207293660E-1
 9.270000000000000E9     5.910261449669208E-2    8.868975139670970E-1
 9.280000000000000E9     1.380182961796345E-1    8.798259290964139E-1
 9.290000000000000E9     2.152163193661004E-1    8.653049345772780E-1
 9.300000000000000E9     2.905847081103647E-1    8.438112333791407E-1
 9.310000000000000E9     3.639015533155635E-1    8.155202779621818E-1
 9.320000000000000E9     4.348688373107500E-1    7.808083194252499E-1
 9.330000000000000E9     5.030521162964111E-1    7.398527866132342E-1
 9.340000000000000E9     5.679289212180044E-1    6.926928412014585E-1
 9.350000000000000E9     6.283705781709906E-1    6.394829520656998E-1
 9.360000000000000E9     6.838050812485111E-1    5.802487593753504E-1
 9.370000000000000E9     7.334818631166525E-1    5.156852670477374E-1
 9.380000000000000E9     7.767468165603474E-1    4.459091953088096E-1
 9.390000000000000E9     8.131533017219550E-1    3.713664326551236E-1
 9.400000000000000E9     8.425849176520510E-1    2.922993654925483E-1
 9.410000000000000E9     8.643226981562574E-1    2.091225170488778E-1
 9.420000000000000E9     8.783039551974129E-1    1.220987647771355E-1
 9.430000000000000E9     8.835435776641196E-1    3.130062246124463E-2
 9.440000000000000E9     8.787921638003600E-1   -6.255149792734660E-2
 9.450000000000000E9     8.630172537990324E-1   -1.584640504257364E-1
 9.460000000000000E9     8.350875796881518E-1   -2.550711229093051E-1
 9.470000000000000E9     7.939813468221798E-1   -3.512634841804096E-1
 9.480000000000000E9     7.393001605863350E-1   -4.444094882154190E-1
 9.490000000000000E9     6.703600242482161E-1   -5.325123955460145E-1
 9.500000000000000E9     5.878910212439434E-1   -6.136899349111850E-1
 9.510000000000000E9     4.913840521197029E-1   -6.848110926730364E-1
 9.520000000000000E9     3.815451321041872E-1   -7.435288632794512E-1
 9.530000000000000E9     2.600536109603293E-1   -7.869478904461142E-1
 9.540000000000000E9     1.286819553618934E-1   -8.118446234199966E-1
 9.550000000000000E9    -9.810277729629739E-3   -8.149551126255449E-1
 9.560000000000000E9    -1.510708243525143E-1   -7.938041971883505E-1
 9.570000000000000E9    -2.901730554494486E-1   -7.469115849887779E-1
 9.580000000000000E9    -4.213395193148610E-1   -6.747794461472278E-1
 9.590000000000000E9    -5.388936577625406E-1   -5.792669299543327E-1
 9.600000000000000E9    -6.377315757778348E-1   -4.635853537355062E-1
 9.610000000000000E9    -7.142906222166008E-1   -3.325823529184923E-1
 9.620000000000000E9    -7.657211372983004E-1   -1.913871218177189E-1
 9.630000000000000E9    -7.907560158782903E-1   -4.533905844141448E-2
 9.640000000000000E9    -7.897579115070902E-1    1.001717205281775E-1
 9.650000000000000E9    -7.635276250757552E-1    2.399406152078813E-1
 9.660000000000000E9    -7.154689627550486E-1    3.691871615195849E-1
 9.670000000000000E9    -6.491937089459530E-1    4.851488154717757E-1
 9.680000000000000E9    -5.689944749828997E-1    5.854169151708222E-1
 9.690000000000000E9    -4.788314486657233E-1    6.692679862961453E-1
 9.700000000000000E9    -3.821981587614455E-1    7.365854198438868E-1
 9.710000000000000E9    -2.822786249909185E-1    7.877332609497051E-1
 9.720000000000000E9    -1.809162574022266E-1    8.238861924006149E-1
 9.730000000000000E9    -8.031394491995122E-2    8.457762767816863E-1
 9.740000000000000E9     1.827000075445119E-2    8.545859474481139E-1
 9.750000000000000E9     1.137183552570055E-1    8.516091110880171E-1
 9.760000000000000E9     2.051247903515438E-1    8.381649748562010E-1
 9.770000000000000E9     2.916149621235039E-1    8.157169256890943E-1
 9.780000000000000E9     3.723093239145889E-1    7.857299621208254E-1
 9.790000000000000E9     4.471611259390795E-1    7.495817527296355E-1
 9.800000000000000E9     5.158660755672436E-1    7.083784085565865E-1
 9.810000000000000E9     5.784389913782708E-1    6.629102996171361E-1
 9.820000000000000E9     6.349169370068540E-1    6.138661243389189E-1
 9.830000000000000E9     6.854887417412718E-1    5.611956811621356E-1
 9.840000000000000E9     7.302936462224571E-1    5.051907954756770E-1
 9.850000000000000E9     7.693686927385854E-1    4.459979678088425E-1
 9.860000000000000E9     8.026539473436083E-1    3.840246630879542E-1
 9.870000000000000E9     8.304276625660025E-1    3.198433485997073E-1
 9.880000000000000E9     8.529541404894360E-1    2.541782967757376E-1
 9.890000000000000E9     8.704408876636218E-1    1.878773552654823E-1
 9.900000000000000E9     8.830353002525066E-1    1.214576241449179E-1
 9.910000000000000E9     8.909022510362392E-1    5.536706317861065E-2
 9.920000000000000E9     8.939439456805243E-1   -1.022651595722886E-2
 9.930000000000000E9     8.920881877230842E-1   -7.540141826867382E-2
 9.940000000000000E9     8.850129795240829E-1   -1.401083986669928E-1
 9.950000000000000E9     8.724561338176007E-1   -2.045429714769196E-1
 9.960000000000000E9     8.542109782950026E-1   -2.687362557061224E-1
 9.970000000000000E9     8.303533241617439E-1   -3.325138226003022E-1
 9.980000000000000E9     8.010070616829548E-1   -3.955585020702771E-1
 9.990000000000000E9     7.663603092852648E-1   -4.572469929237567E-1
 1.000000000000000E+10   7.269185728798061E-1   -5.168879712871741E-1
 1.001000000000000E+10   6.830444290367782E-1   -5.744799094233214E-1
 1.002000000000000E+10   6.344812878125052E-1   -6.288001050219394E-1
 1.003000000000000E+10   5.811480389334870E-1   -6.795405266477090E-1
 1.004000000000000E+10   5.225315168093719E-1   -7.263942423830259E-1
 1.005000000000000E+10   4.580103576235767E-1   -7.687387817035504E-1
 1.006000000000000E+10   3.869010078206372E-1   -8.061486067182877E-1
 1.007000000000000E+10   3.091964944314914E-1   -8.378164255396450E-1
 1.008000000000000E+10   2.245128534617491E-1   -8.626326997990056E-1
 1.009000000000000E+10   1.335833974362562E-1   -8.798543187429522E-1
 1.010000000000000E+10   3.759871236162240E-2   -8.884661062367749E-1
 1.011000000000000E+10  -6.219873132271372E-2   -8.870288478559654E-1
 1.012000000000000E+10  -1.642584563216956E-1   -8.751542620171553E-1
 1.013000000000000E+10  -2.671946657872077E-1   -8.507965765635591E-1
 1.014000000000000E+10  -3.695396235953242E-1   -8.126495045554311E-1
 1.015000000000000E+10  -4.696982574718881E-1   -7.596163603448000E-1
 1.016000000000000E+10  -5.658697903302622E-1   -6.899141670263230E-1
 1.017000000000000E+10  -6.556276868700027E-1   -6.026909719717802E-1
 1.018000000000000E+10  -7.357018905446323E-1   -4.980517321759819E-1
 1.019000000000000E+10  -8.027070570482101E-1   -3.772734864489917E-1
 1.020000000000000E+10  -8.526794966691417E-1   -2.425676201271342E-1
 1.021000000000000E+10  -8.821620043990472E-1   -9.815364645577770E-2
 1.022000000000000E+10  -8.883685635643869E-1    5.134230097320368E-2
 1.023000000000000E+10  -8.703363447900062E-1    2.006660394586465E-1
 1.024000000000000E+10  -8.272380995620158E-1    3.454178854150310E-1
 1.025000000000000E+10  -7.596445935971801E-1    4.807585498657860E-1
 1.026000000000000E+10  -6.691630894636309E-1    6.028482660087010E-1
 1.027000000000000E+10  -5.583243539804880E-1    7.082666572778764E-1
 1.028000000000000E+10  -4.309924615282660E-1    7.935821508948979E-1
 1.029000000000000E+10  -2.920851763679439E-1    8.564070087185002E-1
 1.030000000000000E+10  -1.474095366367263E-1    8.960693082960425E-1
 1.031000000000000E+10  -2.404722644076775E-3    9.122134728728506E-1
 1.032000000000000E+10   1.378253501473229E-1    9.068248772606673E-1
 1.033000000000000E+10   2.700113015568593E-1    8.816422589942312E-1
 1.034000000000000E+10   3.916503645114171E-1    8.391906638822166E-1
 1.035000000000000E+10   5.014295084512965E-1    7.817239911118067E-1
 1.036000000000000E+10   5.991175365899465E-1    7.118995855126401E-1
 1.037000000000000E+10   6.846262957433950E-1    6.315808282404807E-1
 1.038000000000000E+10   7.577858564359410E-1    5.433763488917340E-1
 1.039000000000000E+10   8.185758458529530E-1    4.497365475609161E-1
 1.040000000000000E+10   8.673503057572423E-1    3.529513370005317E-1
 1.041000000000000E+10   9.042285466850745E-1    2.552998904343621E-1
 1.042000000000000E+10   9.293499585738246E-1    1.582588555575348E-1
 1.043000000000000E+10   9.433896102815685E-1    6.344532547305544E-2
 1.044000000000000E+10   9.468352906863674E-1   -2.897465105807277E-2
 1.045000000000000E+10   9.405567509119873E-1   -1.184415446684145E-1
 1.046000000000000E+10   9.247117842842517E-1   -2.055598008902790E-1
 1.047000000000000E+10   9.004947069556182E-1   -2.899261863134832E-1
 1.048000000000000E+10   8.688204766481249E-1   -3.715789472008615E-1
 1.049000000000000E+10   8.299888382646871E-1   -4.498873806555834E-1
 1.050000000000000E+10   7.852669442022996E-1   -5.242327855617165E-1
 1.051000000000000E+10   7.356395994550308E-1   -5.936614009414254E-1
 1.052000000000000E+10   6.815295600293501E-1   -6.573156874322490E-1
 1.053000000000000E+10   6.236311361927691E-1   -7.147033813019703E-1
 1.054000000000000E+10   5.622701810955646E-1   -7.654257676226741E-1
 1.055000000000000E+10   4.971936406566170E-1   -8.093719232711352E-1
 1.056000000000000E+10   4.283333821900173E-1   -8.468846687146317E-1
 1.057000000000000E+10   3.553543704726303E-1   -8.778984221065673E-1
 1.058000000000000E+10   2.785705401425725E-1   -9.026131774398035E-1
 1.059000000000000E+10   1.982775791057030E-1   -9.212650375643928E-1
 1.060000000000000E+10   1.153718435543920E-1   -9.336441857597869E-1
 1.061000000000000E+10   3.070711775849743E-2   -9.397340236429672E-1
 1.062000000000000E+10  -5.424614995191448E-2   -9.389889386340583E-1
 1.063000000000000E+10  -1.384552141710692E-1   -9.312565705209299E-1
 1.064000000000000E+10  -2.211143774898351E-1   -9.159000761866308E-1
 1.065000000000000E+10  -3.014087647328435E-1   -8.926368269876127E-1
 1.066000000000000E+10  -3.795064645943316E-1   -8.613588794328448E-1
 1.067000000000000E+10  -4.550270909822315E-1   -8.215944649656024E-1
 1.068000000000000E+10  -5.283383264613019E-1   -7.730728375116709E-1
 1.069000000000000E+10  -5.988564121114506E-1   -7.159697253812611E-1
 1.070000000000000E+10  -6.659293072223120E-1   -6.503241126777526E-1
 1.071000000000000E+10  -7.284509182216680E-1   -5.767510921597671E-1
 1.072000000000000E+10  -7.847100468029085E-1   -4.961405173900540E-1
 1.073000000000000E+10  -8.333373318532254E-1   -4.096916542766076E-1
 1.074000000000000E+10  -8.728415065936702E-1   -3.181195914422347E-1
 1.075000000000000E+10  -9.020039060813384E-1   -2.228434388822339E-1
 1.076000000000000E+10  -9.200392059306900E-1   -1.240191885131449E-1
 1.077000000000000E+10  -9.264624951705643E-1   -2.249874565493614E-2
 1.078000000000000E+10  -9.207630753669214E-1    8.176381025468231E-2
 1.079000000000000E+10  -9.024419149517675E-1    1.875331379787295E-1
 1.080000000000000E+10  -8.713978788293053E-1    2.938184774584017E-1
 1.081000000000000E+10  -8.274406060114653E-1    3.986339548941412E-1
 1.082000000000000E+10  -7.708159369114208E-1    5.001113038311689E-1
 1.083000000000000E+10  -7.019676079870495E-1    5.948381428299520E-1
 1.084000000000000E+10  -6.218392430485308E-1    6.810349996364606E-1
 1.085000000000000E+10  -5.314438921360956E-1    7.560354089924438E-1
 1.086000000000000E+10  -4.323362990332531E-1    8.181069228711937E-1
 1.087000000000000E+10  -3.256491613485057E-1    8.667349927129889E-1
 1.088000000000000E+10  -2.121803682421145E-1    9.008707360113619E-1
 1.089000000000000E+10  -9.368191199625230E-2    9.204004167423309E-1
 1.090000000000000E+10   2.834705489155247E-2    9.247673232364519E-1
 1.091000000000000E+10   1.516159874365943E-1    9.140949976201385E-1
 1.092000000000000E+10   2.737190307453525E-1    8.876987756653263E-1
 1.093000000000000E+10   3.913712255111751E-1    8.460157289839222E-1
 1.094000000000000E+10   5.020139984440827E-1    7.898106969151240E-1
 1.095000000000000E+10   6.028169309983338E-1    7.193853354398444E-1
 1.096000000000000E+10   6.912677504515817E-1    6.335829937426040E-1
 1.097000000000000E+10   7.529652424684118E-1    5.337584721073915E-1
 1.098000000000000E+10   8.012920824610532E-1    4.598272545978018E-1
 1.099000000000000E+10   8.633746982807436E-1    3.656030154965990E-1
 1.100000000000000E+10   9.077622057333176E-1    2.570423262127683E-1
 1.101000000000000E+10   9.364236860372750E-1    1.433994743593505E-1
 1.102000000000000E+10   9.503210073415856E-1    2.729623938418124E-2
 1.103000000000000E+10   9.501747633775697E-1   -8.857159681252216E-2
 1.104000000000000E+10   9.361603550193264E-1   -2.020653165650881E-1
 1.105000000000000E+10   9.089048463308486E-1   -3.106243072624899E-1
 1.106000000000000E+10   8.697723710201530E-1   -4.131557469485874E-1
 1.107000000000000E+10   8.195099905702168E-1   -5.084885044387976E-1
 1.108000000000000E+10   7.590738377777356E-1   -5.962164316010673E-1
 1.109000000000000E+10   6.894821621902822E-1   -6.761968404999820E-1
 1.110000000000000E+10   6.119238815385171E-1   -7.479807441069363E-1
 1.111000000000000E+10   5.269970226217310E-1   -8.114308358379344E-1
 1.112000000000000E+10   4.353844063132669E-1   -8.654635996660591E-1
 1.113000000000000E+10   3.386510517127970E-1   -9.093055251139232E-1
 1.114000000000000E+10   2.376279657288894E-1   -9.421006019470464E-1
 1.115000000000000E+10   1.344410209029687E-1   -9.631932572909173E-1
 1.116000000000000E+10   3.004180243655285E-2   -9.719951857004413E-1
 1.117000000000000E+10  -7.399462081690784E-2   -9.687026463862048E-1
 1.118000000000000E+10  -1.764843491307093E-1   -9.543013082687539E-1
 1.119000000000000E+10  -2.766925188359396E-1   -9.289017237337280E-1
 1.120000000000000E+10  -3.743250430156079E-1   -8.928942908457894E-1
 1.121000000000000E+10  -4.682724814406655E-1   -8.465998863530630E-1
 1.122000000000000E+10  -5.573325017743825E-1   -7.906286626510169E-1
 1.123000000000000E+10  -6.402378654700784E-1   -7.251105430517333E-1
 1.124000000000000E+10  -7.153429897248387E-1   -6.504413013205177E-1
 1.125000000000000E+10  -7.815811053842617E-1   -5.681272218286024E-1
 1.126000000000000E+10  -8.374658469445950E-1   -4.788089074725463E-1
 1.127000000000000E+10  -8.824787343790734E-1   -3.839653493982932E-1
 1.128000000000000E+10  -9.165575942236875E-1   -2.846002780834725E-1
 1.129000000000000E+10  -9.393935373451474E-1   -1.820797078737949E-1
 1.130000000000000E+10  -9.508695195355393E-1   -7.709660551033973E-2
 1.131000000000000E+10  -9.509949081197424E-1    2.880056039242786E-2
 1.132000000000000E+10  -9.398758726207809E-1    1.348518719978046E-1
 1.133000000000000E+10  -9.172955998720737E-1    2.392944776516792E-1
 1.134000000000000E+10  -8.832357000920085E-1    3.406365112609480E-1
 1.135000000000000E+10  -8.377914074396434E-1    4.372959018105371E-1
 1.136000000000000E+10  -7.815211723203945E-1    5.275811264879574E-1
 1.137000000000000E+10  -7.157375286406760E-1    6.102183136635961E-1
 1.138000000000000E+10  -6.413621635476560E-1    6.842848023683280E-1
 1.139000000000000E+10  -5.597440962894878E-1    7.493598460140284E-1
 1.140000000000000E+10  -4.720287143731076E-1    8.050044869494701E-1
 1.141000000000000E+10  -3.794291273097103E-1    8.510477064237921E-1
 1.142000000000000E+10  -2.826818632257150E-1    8.869811601556641E-1
 1.143000000000000E+10  -1.829730732566886E-1    9.123157203813844E-1
 1.144000000000000E+10  -8.128998917015501E-2    9.265853493574442E-1
 1.145000000000000E+10   2.096304669250743E-2    9.294444364341754E-1
 1.146000000000000E+10   1.220983000101196E-1    9.208007128084804E-1
 1.147000000000000E+10   2.209614247868412E-1    9.011093144788233E-1
 1.148000000000000E+10   3.165446145960256E-1    8.711982286418535E-1
 1.149000000000000E+10   4.078100477721627E-1    8.314117055995655E-1
 1.150000000000000E+10   4.938667010822159E-1    7.831773172753221E-1
 1.151000000000000E+10   5.742694753544572E-1    7.269096106294975E-1
 1.152000000000000E+10   6.481320417507890E-1    6.632147439130373E-1
 1.153000000000000E+10   7.148527889254527E-1    5.925787444119882E-1
 1.154000000000000E+10   7.737420828276229E-1    5.158669867371751E-1
 1.155000000000000E+10   8.239878632694541E-1    4.337170698196889E-1
 1.156000000000000E+10   8.652453353175659E-1    3.466087707759034E-1
 1.157000000000000E+10   8.966066443645357E-1    2.560911026117495E-1
 1.158000000000000E+10   9.182701299581615E-1    1.634567760857687E-1
 1.159000000000000E+10   9.301634683450070E-1    6.947827683216398E-2
 1.160000000000000E+10   9.331183312567750E-1   -2.444624599878478E-2
 1.161000000000000E+10   9.269496852788965E-1   -1.173800438565388E-1
 1.162000000000000E+10   9.122865481164398E-1   -2.088952851315456E-1
 1.163000000000000E+10   8.889004251778921E-1   -2.982327866024205E-1
 1.164000000000000E+10   8.568292527628549E-1   -3.847410256856226E-1
 1.165000000000000E+10   8.160979087753465E-1   -4.675746506722402E-1
 1.166000000000000E+10   7.663721782810227E-1   -5.459988420202987E-1
 1.167000000000000E+10   7.084524513430137E-1   -6.189731530458576E-1
 1.168000000000000E+10   6.429775358997010E-1   -6.859985625658658E-1
 1.169000000000000E+10   5.709825062782491E-1   -7.465854335455451E-1
 1.170000000000000E+10   4.935311909306598E-1   -7.999283423101945E-1
 1.171000000000000E+10   4.112505044736856E-1   -8.459167471924437E-1
 1.172000000000000E+10   3.251963689970289E-1   -8.836659042520209E-1
 1.173000000000000E+10   2.362248107975127E-1   -9.129406084961325E-1
 1.174000000000000E+10   1.446180287850810E-1   -9.333142183199318E-1
 1.175000000000000E+10   5.114523661915565E-2   -9.438778429821736E-1
 1.176000000000000E+10  -4.397615612543754E-2   -9.445508101371387E-1
 1.177000000000000E+10  -1.399612600547572E-1   -9.348196668563699E-1
 1.178000000000000E+10  -2.358573552811467E-1   -9.146252760992637E-1
 1.179000000000000E+10  -3.304549057574552E-1   -8.837111576414025E-1
 1.180000000000000E+10  -4.228191611619774E-1   -8.426847170148408E-1
 1.181000000000000E+10  -5.114309759543019E-1   -7.918677835651001E-1
 1.182000000000000E+10  -5.946885009278304E-1   -7.320378294439319E-1
 1.183000000000000E+10  -6.721787910000169E-1   -6.632017409934428E-1
 1.184000000000000E+10  -7.417146323864308E-1   -5.853666606978266E-1
 1.185000000000000E+10  -8.022785726223114E-1   -4.992790961666616E-1
 1.186000000000000E+10  -8.531808452485717E-1   -4.052417024445752E-1
 1.187000000000000E+10  -8.926974650249635E-1   -3.042986540238199E-1
 1.188000000000000E+10  -9.204639093234116E-1   -1.974822995104210E-1
 1.189000000000000E+10  -9.353865099304955E-1   -8.665720774981046E-2
 1.190000000000000E+10  -9.375281718498467E-1    2.619954720772040E-2
 1.191000000000000E+10  -9.269107180997100E-1    1.398623424619192E-1
 1.192000000000000E+10  -9.025996616255267E-1    2.521566316509704E-1
 1.193000000000000E+10  -8.646714698361168E-1    3.607614452743495E-1
 1.194000000000000E+10  -8.135422284187862E-1    4.641633597813321E-1
 1.195000000000000E+10  -7.490768523886880E-1    5.602699984919054E-1
 1.196000000000000E+10  -6.716618152650683E-1    6.478380640861002E-1
 1.197000000000000E+10  -5.818929737966214E-1    7.246579238592101E-1
 1.198000000000000E+10  -4.820975714559876E-1    7.902299911881738E-1
 1.199000000000000E+10  -3.738201932532496E-1    8.425306670753941E-1
 1.200000000000000E+10  -2.594718848166747E-1    8.811430755812327E-1
 1.201000000000000E+10  -1.421438160155004E-1    9.054222388649106E-1
 1.202000000000000E+10  -2.390447441872055E-2    9.148627504473058E-1
 1.203000000000000E+10   9.252655211686155E-2    9.098545435045187E-1
 1.204000000000000E+10   2.050781351288721E-1    8.907517681564868E-1
 1.205000000000000E+10   3.124821579769853E-1    8.578562812597023E-1
 1.206000000000000E+10   4.133650877566861E-1    8.116311694921309E-1
 1.207000000000000E+10   5.070347646509081E-1    7.530375797348815E-1
 1.208000000000000E+10   5.924039510816808E-1    6.831898288074355E-1
 1.209000000000000E+10   6.683037155052417E-1    6.036479152786006E-1
 1.210000000000000E+10   7.340941405747898E-1    5.165231996527276E-1
 1.211000000000000E+10   7.888282132382629E-1    4.237400317035857E-1
 1.212000000000000E+10   8.320968079231436E-1    3.271581566697928E-1
 1.213000000000000E+10   8.634849220660409E-1    2.287148656123125E-1
 1.214000000000000E+10   8.827935830719391E-1    1.292710331304968E-1
 1.215000000000000E+10   8.896277031576818E-1    3.035548969208651E-2
 1.216000000000000E+10   8.842543837302865E-1   -6.773500054524467E-2
 1.217000000000000E+10   8.666272569666656E-1   -1.639143747238395E-1
 1.218000000000000E+10   8.365892467384312E-1   -2.574465737604560E-1
 1.219000000000000E+10   7.939314471701090E-1   -3.468356118178126E-1
 1.220000000000000E+10   7.373704931427805E-1   -4.295743144180349E-1
 1.221000000000000E+10   6.637054142595402E-1   -4.994044720738989E-1
 1.222000000000000E+10   5.712396231905950E-1   -5.371060038182215E-1
 1.223000000000000E+10   5.034809190271803E-1   -4.962914314492883E-1
 1.224000000000000E+10   5.805812151924170E-1   -4.895757188262326E-1
 1.225000000000000E+10   5.931799044949231E-1   -6.187653071983527E-1
 1.226000000000000E+10   5.268278468139769E-1   -7.190160248791121E-1
 1.227000000000000E+10   4.431244839461192E-1   -7.851779047697719E-1
 1.228000000000000E+10   3.557173092804820E-1   -8.310894701736148E-1
 1.229000000000000E+10   2.666166868536753E-1   -8.635069214517517E-1
 1.230000000000000E+10   1.764965381644237E-1   -8.855320360703863E-1
 1.231000000000000E+10   8.606197470708300E-2   -8.987194919123959E-1
 1.232000000000000E+10  -3.330494290787827E-3   -9.037658507470998E-1
 1.233000000000000E+10  -9.099481525024709E-2   -9.007944570405521E-1
 1.234000000000000E+10  -1.756407494184482E-1   -8.905177290228604E-1
 1.235000000000000E+10  -2.572418842536676E-1   -8.727066364739078E-1
 1.236000000000000E+10  -3.347478209228227E-1   -8.472619477880423E-1
 1.237000000000000E+10  -4.090128106595919E-1   -8.145256137981811E-1
 1.238000000000000E+10  -4.795419278910273E-1   -7.738955883039487E-1
 1.239000000000000E+10  -5.469133713799209E-1   -7.261044813411361E-1
 1.240000000000000E+10  -6.105673049334676E-1   -6.713888218442214E-1
 1.241000000000000E+10  -6.703919858046622E-1   -6.102138891934755E-1
 1.242000000000000E+10  -7.255117612193469E-1   -5.433712868253521E-1
 1.243000000000000E+10  -7.752385244387621E-1   -4.718046256809709E-1
 1.244000000000000E+10  -8.182599086393817E-1   -3.968397574651998E-1
 1.245000000000000E+10  -8.538866289017711E-1   -3.186076960167319E-1
 1.246000000000000E+10  -8.815505871451302E-1   -2.375493570200162E-1
 1.247000000000000E+10  -9.005599566339790E-1   -1.543534176877156E-1
 1.248000000000000E+10  -9.108481682891202E-1   -6.882226591286005E-2
 1.249000000000000E+10  -9.120653966424060E-1    1.916537516663175E-2
 1.250000000000000E+10  -9.041354849736462E-1    1.088001847930067E-1
