#  HZ   S   RI   R     50.00 
! Rohde & Schwarz Vector Network Analyzer 
! Rohde-Schwarz,ZNA43-4Port,1332450044101932,2.92
! Created: UTC 6/1/2026, 11:35:00 AM
! freq[Hz]                re:S11                  im:S11
 8.000000000000000E9    -3.735565579503106E-1    8.985459621048830E-1
 8.010000000000000E9    -2.872194223546209E-1    9.320232448959346E-1
 8.020000000000000E9    -2.016160344350515E-1    9.562185009775663E-1
 8.030000000000000E9    -1.167935845648829E-1    9.716162596842050E-1
 8.040000000000000E9    -3.232519655735266E-2    9.785661826506807E-1
 8.050000000000000E9     5.152670911846796E-2    9.776697301999819E-1
 8.060000000000000E9     1.343272248472670E-1    9.688006468858095E-1
 8.070000000000000E9     2.159322700976730E-1    9.530840323705404E-1
 8.080000000000000E9     2.956633652265295E-1    9.310164878230884E-1
 8.090000000000000E9     3.728073545901149E-1    9.029197700646748E-1
 8.100000000000000E9     4.473203357779604E-1    8.690940753699496E-1
 8.110000000000000E9     5.183983113881941E-1    8.299592407782953E-1
 8.120000000000000E9     5.854366788696025E-1    7.855378901356189E-1
 8.130000000000000E9     6.483832674208759E-1    7.351652058592751E-1
 8.140000000000000E9     7.069857796898037E-1    6.791199347681433E-1
 8.150000000000000E9     7.611201500313552E-1    6.166580224901840E-1
 8.160000000000000E9     8.102538066391031E-1    5.485209311006983E-1
 8.170000000000000E9     8.541996871197501E-1    4.743734663809013E-1
 8.180000000000000E9     8.923498747090296E-1    3.951512462294307E-1
 8.190000000000000E9     9.246431370692983E-1    3.113590281116578E-1
 8.200000000000000E9     9.496279075597324E-1    2.237699121218671E-1
 8.210000000000000E9     9.674360297357861E-1    1.328643669400140E-1
 8.220000000000000E9     9.763919819625088E-1    3.904869325035180E-2
 8.230000000000000E9     9.759285513560567E-1   -5.696882359616892E-2
 8.240000000000000E9     9.646557946376171E-1   -1.550824432866760E-1
 8.250000000000000E9     9.422308677418175E-1   -2.546234232050056E-1
 8.260000000000000E9     9.073689650602100E-1   -3.548732332329615E-1
 8.270000000000000E9     8.594691382123933E-1   -4.545456476863496E-1
 8.280000000000000E9     7.982942484102488E-1   -5.518276295052490E-1
 8.290000000000000E9     7.235483863185547E-1   -6.447583745765881E-1
 8.300000000000000E9     6.363271297798374E-1   -7.304675131750987E-1
 8.310000000000000E9     5.368930475141227E-1   -8.068781280734328E-1
 8.320000000000000E9     4.258838610400272E-1   -8.712586375184571E-1
 8.330000000000000E9     3.043804234390397E-1   -9.211297713795608E-1
 8.340000000000000E9     1.732252114213754E-1   -9.540831626603002E-1
 8.350000000000000E9     3.440585271567002E-2   -9.674996049433384E-1
 8.360000000000000E9    -1.097500829413193E-1   -9.594093649776194E-1
 8.370000000000000E9    -2.555766103715015E-1   -9.284150156350504E-1
 8.380000000000000E9    -3.988467939152089E-1   -8.741276750951384E-1
 8.390000000000000E9    -5.345669915636407E-1   -7.972129654827175E-1
 8.400000000000000E9    -6.578934137851903E-1   -6.992116191225278E-1
 8.410000000000000E9    -7.643543088771003E-1   -5.826336635437811E-1
 8.420000000000000E9    -8.501107515421910E-1   -4.508345461170707E-1
 8.430000000000000E9    -9.126133614793979E-1   -3.075277603653842E-1
 8.440000000000000E9    -9.500701284555688E-1   -1.565105334216728E-1
 8.450000000000000E9    -9.619512194386639E-1   -1.763629704328112E-3
 8.460000000000000E9    -9.484524845531286E-1    1.525593522358668E-1
 8.470000000000000E9    -9.110382865083083E-1    3.018938251275037E-1
 8.480000000000000E9    -8.519295096373148E-1    4.421507290597554E-1
 8.490000000000000E9    -7.739561466098606E-1    5.694151689503315E-1
 8.500000000000000E9    -6.810633108240363E-1    6.805007981371085E-1
 8.510000000000000E9    -5.763135660548704E-1    7.742393336095382E-1
 8.520000000000000E9    -4.631088413723421E-1    8.493446931668320E-1
 8.530000000000000E9    -3.436455991219561E-1    9.056471016536300E-1
 8.540000000000000E9    -2.200396634973961E-1    9.433154364937577E-1
 8.550000000000000E9    -9.459253103506429E-2    9.632043021652341E-1
 8.560000000000000E9     3.133771377324649E-2    9.661986464094228E-1
 8.570000000000000E9     1.554656448837206E-1    9.532478769223119E-1
 8.580000000000000E9     2.756654051961002E-1    9.258072055443073E-1
 8.590000000000000E9     3.899030625266114E-1    8.849651047816711E-1
 8.600000000000000E9     4.964981684860616E-1    8.321722632251072E-1
 8.610000000000000E9     5.936197369034841E-1    7.686585244204227E-1
 8.620000000000000E9     6.805179939029831E-1    6.954087080680417E-1
 8.630000000000000E9     7.566986134842021E-1    6.132411425238685E-1
 8.640000000000000E9     8.213405033583405E-1    5.228384766499116E-1
 8.650000000000000E9     8.742920267145333E-1    4.251553388778937E-1
 8.660000000000000E9     9.157995763886337E-1    3.214222617312528E-1
 8.670000000000000E9     9.454605609967072E-1    2.127895981438557E-1
 8.680000000000000E9     9.628955984556835E-1    1.009314540942519E-1
 8.690000000000000E9     9.682689225121199E-1   -1.233232299304827E-2
 8.700000000000000E9     9.613332025229282E-1   -1.250381509698726E-1
 8.710000000000000E9     9.414818479517582E-1   -2.354885904543086E-1
 8.720000000000000E9     9.095265302083999E-1   -3.421879251585370E-1
 8.730000000000000E9     8.647317385508418E-1   -4.442654521592045E-1
 8.740000000000000E9     8.074978109160675E-1   -5.404280429656625E-1
 8.750000000000000E9     7.381372551224126E-1   -6.300794669780645E-1
 8.760000000000000E9     6.572735262467403E-1   -7.115851247730425E-1
 8.770000000000000E9     5.659764650735696E-1   -7.841584233649007E-1
 8.780000000000000E9     4.658883774524451E-1   -8.461737522447024E-1
 8.790000000000000E9     3.589365652984188E-1   -8.964772830162552E-1
 8.800000000000000E9     2.468762004090725E-1   -9.342268202526608E-1
 8.810000000000000E9     1.319190602168322E-1   -9.582468754654300E-1
 8.820000000000000E9     1.560560721604305E-2   -9.678332681475288E-1
 8.830000000000000E9    -1.004761793715763E-1   -9.628208367616752E-1
 8.840000000000000E9    -2.147634880039949E-1   -9.432962267843668E-1
 8.850000000000000E9    -3.259825524936988E-1   -9.095648393249135E-1
 8.860000000000000E9    -4.330053575517597E-1   -8.623859293688290E-1
 8.870000000000000E9    -5.340411700525668E-1   -8.023248353483623E-1
 8.880000000000000E9    -6.274958660326959E-1   -7.308838539286903E-1
 8.890000000000000E9    -7.116318277966240E-1   -6.499749771144678E-1
 8.900000000000000E9    -7.850980399726789E-1   -5.608388989789849E-1
 8.910000000000000E9    -8.465534966193446E-1   -4.656746260666736E-1
 8.920000000000000E9    -8.955765367553017E-1   -3.659804956939587E-1
 8.930000000000000E9    -9.315239146123181E-1   -2.629798831211455E-1
 8.940000000000000E9    -9.548403489084489E-1   -1.577473083560608E-1
 8.950000000000000E9    -9.656442268034042E-1   -5.167880641171128E-2
 8.960000000000000E9    -9.643474605379561E-1    5.425108171544034E-2
 8.970000000000000E9    -9.519013779151392E-1    1.591677493243454E-1
 8.980000000000000E9    -9.288902538639964E-1    2.614093178780710E-1
 8.990000000000000E9    -8.962649299033154E-1    3.596635214556882E-1
 9.000000000000000E9    -8.548081769318041E-1    4.523873744674597E-1
 9.010000000000000E9    -8.057478587305078E-1    5.385311340499277E-1
 9.020000000000000E9    -7.495123668979514E-1    6.172173509142905E-1
 9.030000000000000E9    -6.868299055553916E-1    6.879586071855505E-1
 9.040000000000000E9    -6.185360597547599E-1    7.506606542990352E-1
 9.050000000000000E9    -5.449171141071025E-1    8.054463000680945E-1
 9.060000000000000E9    -4.664793741519082E-1    8.523641199507421E-1
 9.070000000000000E9    -3.841030462095312E-1    8.916619320349751E-1
 9.080000000000000E9    -2.984426543389603E-1    9.235307858985747E-1
 9.090000000000000E9    -2.103763837614931E-1    9.477485042475272E-1
 9.100000000000000E9    -1.209782946416103E-1    9.642178719272591E-1
 9.110000000000000E9    -3.158769849045476E-2    9.728400970401485E-1
 9.120000000000000E9     5.707319519623071E-2    9.732467580129164E-1
 9.130000000000000E9     1.440031607796925E-1    9.655330170781424E-1
 9.140000000000000E9     2.288451836189913E-1    9.498031369830394E-1
 9.150000000000000E9     3.110986036891757E-1    9.261508121706369E-1
 9.160000000000000E9     3.911150429883384E-1    8.947286219126382E-1
 9.170000000000000E9     4.685997515714797E-1    8.556896402232896E-1
 9.180000000000000E9     5.435128891958632E-1    8.093360129863802E-1
 9.190000000000000E9     6.154491953186414E-1    7.558261710347782E-1
 9.200000000000000E9     6.836422101426650E-1    6.947646983557477E-1
 9.210000000000000E9     7.469472987959840E-1    6.271462226716802E-1
 9.220000000000000E9     8.040410287519020E-1    5.530568371943523E-1
 9.230000000000000E9     8.544901916245112E-1    4.726655777581298E-1
 9.240000000000000E9     8.965524508293808E-1    3.867029895130804E-1
 9.250000000000000E9     9.299408129083783E-1    2.954590949145477E-1
 9.260000000000000E9     9.540494069529760E-1    1.995690035131708E-1
 9.270000000000000E9     9.682041550658017E-1    9.933427756866557E-2
 9.280000000000000E9     9.719748478047366E-1   -4.788646564644373E-3
 9.290000000000000E9     9.643889405803493E-1   -1.122679152728179E-1
 9.300000000000000E9     9.443764589218887E-1   -2.220423085992569E-1
 9.310000000000000E9     9.108121882154181E-1   -3.323293417168052E-1
 9.320000000000000E9     8.625433093875535E-1   -4.413901703703448E-1
 9.330000000000000E9     7.990533882781472E-1   -5.465999099307398E-1
 9.340000000000000E9     7.197433835085890E-1   -6.451604797303541E-1
 9.350000000000000E9     6.250860946409579E-1   -7.340376759009161E-1
 9.360000000000000E9     5.158220312564294E-1   -8.108215259286059E-1
 9.370000000000000E9     3.934200741759952E-1   -8.731130469067582E-1
 9.380000000000000E9     2.595010229147908E-1   -9.183087805726661E-1
 9.390000000000000E9     1.164131113277776E-1   -9.440333892680831E-1
 9.400000000000000E9    -3.264526941537804E-2   -9.479169137357909E-1
 9.410000000000000E9    -1.836959581136791E-1   -9.282564940794806E-1
 9.420000000000000E9    -3.319622762234901E-1   -8.839222689906256E-1
 9.430000000000000E9    -4.722636481530758E-1   -8.151771227261123E-1
 9.440000000000000E9    -5.988720512968828E-1   -7.240411424558240E-1
 9.450000000000000E9    -7.082048934428076E-1   -6.139581201789694E-1
 9.460000000000000E9    -7.970794571773100E-1   -4.890249016914213E-1
 9.470000000000000E9    -8.635708826977788E-1   -3.538410883592292E-1
 9.480000000000000E9    -9.073095002922464E-1   -2.127228857664536E-1
 9.490000000000000E9    -9.287967392613102E-1   -7.003865479393592E-2
 9.500000000000000E9    -9.283169189996003E-1    7.098311785293926E-2
 9.510000000000000E9    -9.082341683774853E-1    2.064744954113004E-1
 9.520000000000000E9    -8.700630968669291E-1    3.336693641974441E-1
 9.530000000000000E9    -8.159465683881089E-1    4.500959309897166E-1
 9.540000000000000E9    -7.488766717746125E-1    5.544803636737639E-1
 9.550000000000000E9    -6.719916843949427E-1    6.455722969437747E-1
 9.560000000000000E9    -5.882833833384866E-1    7.233311912079657E-1
 9.570000000000000E9    -4.998397113382004E-1    7.879063127784391E-1
 9.580000000000000E9    -4.088195089142652E-1    8.402274962340389E-1
 9.590000000000000E9    -3.164929702848635E-1    8.808552738826489E-1
 9.600000000000000E9    -2.240795135418460E-1    9.103311156236450E-1
 9.610000000000000E9    -1.322996828301842E-1    9.295663139533995E-1
 9.620000000000000E9    -4.184309321832105E-2    9.390021918954820E-1
 9.630000000000000E9     4.641997970962689E-2    9.391865026338786E-1
 9.640000000000000E9     1.319939930626513E-1    9.311416083129471E-1
 9.650000000000000E9     2.139124908200974E-1    9.155138207832365E-1
 9.660000000000000E9     2.917558686074769E-1    8.938471228462550E-1
 9.670000000000000E9     3.655275720027343E-1    8.667854847585381E-1
 9.680000000000000E9     4.349121588590399E-1    8.351985275295613E-1
 9.690000000000000E9     4.998104737918310E-1    7.995272851239411E-1
 9.700000000000000E9     5.603684944232409E-1    7.598293530108925E-1
 9.710000000000000E9     6.163657952640409E-1    7.166782106868900E-1
 9.720000000000000E9     6.679844825947513E-1    6.698068668638328E-1
 9.730000000000000E9     7.150522582092639E-1    6.195421265452995E-1
 9.740000000000000E9     7.575677053033183E-1    5.662798148904347E-1
 9.750000000000000E9     7.956215815548735E-1    5.103305319060707E-1
 9.760000000000000E9     8.293145110359815E-1    4.521801917206899E-1
 9.770000000000000E9     8.586460405044727E-1    3.925854821870632E-1
 9.780000000000000E9     8.838864851366737E-1    3.320824226643431E-1
 9.790000000000000E9     9.049338599658826E-1    2.708731407707056E-1
 9.800000000000000E9     9.218472108054357E-1    2.091076257157128E-1
 9.810000000000000E9     9.346078139952413E-1    1.466513364841566E-1
 9.820000000000000E9     9.429243088316478E-1    8.355546722079482E-2
 9.830000000000000E9     9.465497829400308E-1    1.951535443179735E-2
 9.840000000000000E9     9.453108557423869E-1   -4.539489529578480E-2
 9.850000000000000E9     9.390747340371995E-1   -1.111364513922993E-1
 9.860000000000000E9     9.278914270671627E-1   -1.770957794381705E-1
 9.870000000000000E9     9.119333008360978E-1   -2.429069666447052E-1
 9.880000000000000E9     8.915455466741948E-1   -3.080695524049812E-1
 9.890000000000000E9     8.668593086837373E-1   -3.720868780777518E-1
 9.900000000000000E9     8.378601887280549E-1   -4.346074253373999E-1
 9.910000000000000E9     8.044267054144983E-1   -4.953921621612017E-1
 9.920000000000000E9     7.659538141210629E-1   -5.542583790783897E-1
 9.930000000000000E9     7.220193374196905E-1   -6.111770988696417E-1
 9.940000000000000E9     6.720586915670402E-1   -6.655426719956227E-1
 9.950000000000000E9     6.157555660084656E-1   -7.172399312926865E-1
 9.960000000000000E9     5.527948998026970E-1   -7.658204585816426E-1
 9.970000000000000E9     4.836519291209497E-1   -8.103167819199432E-1
 9.980000000000000E9     4.086126528035227E-1   -8.502972926933317E-1
 9.990000000000000E9     3.283452811714573E-1   -8.845969383077872E-1
 1.000000000000000E+10   2.436684282358237E-1   -9.122672051641655E-1
 1.001000000000000E+10   1.542467624129901E-1   -9.336598215978406E-1
 1.002000000000000E+10   6.095769867113687E-2   -9.460114507402785E-1
 1.003000000000000E+10  -3.632585777459730E-2   -9.486330666496489E-1
 1.004000000000000E+10  -1.375022788258946E-1   -9.401114205076715E-1
 1.005000000000000E+10  -2.420254360539629E-1   -9.188357489759093E-1
 1.006000000000000E+10  -3.484957404724521E-1   -8.833194182083827E-1
 1.007000000000000E+10  -4.551895813539045E-1   -8.331640921122488E-1
 1.008000000000000E+10  -5.593368182749713E-1   -7.670221979496699E-1
 1.009000000000000E+10  -6.579866587413810E-1   -6.854066443941621E-1
 1.010000000000000E+10  -7.478767891751753E-1   -5.893079484558723E-1
 1.011000000000000E+10  -8.254995944642061E-1   -4.795112790763108E-1
 1.012000000000000E+10  -8.885349371763065E-1   -3.576621694793822E-1
 1.013000000000000E+10  -9.333927116334696E-1   -2.250930293371267E-1
 1.014000000000000E+10  -9.575019347821653E-1   -8.418141273638514E-2
 1.015000000000000E+10  -9.591846848818087E-1    6.234019943381978E-2
 1.016000000000000E+10  -9.369919115814033E-1    2.107974952813587E-1
 1.017000000000000E+10  -8.905894798207915E-1    3.563851866309015E-1
 1.018000000000000E+10  -8.216378105889998E-1    4.940286278265259E-1
 1.019000000000000E+10  -7.329170202863793E-1    6.190334102074844E-1
 1.020000000000000E+10  -6.280147649328031E-1    7.271633177568347E-1
 1.021000000000000E+10  -5.110970726758463E-1    8.158350619638949E-1
 1.022000000000000E+10  -3.863618140197054E-1    8.838052160334793E-1
 1.023000000000000E+10  -2.569399408822227E-1    9.311949433390480E-1
 1.024000000000000E+10  -1.252554176853298E-1    9.579091840339126E-1
 1.025000000000000E+10   6.044347807730480E-3    9.654816196923024E-1
 1.026000000000000E+10   1.346999540378348E-1    9.548119307462254E-1
 1.027000000000000E+10   2.585507775847469E-1    9.280496317356985E-1
 1.028000000000000E+10   3.751046635531215E-1    8.870772001081781E-1
 1.029000000000000E+10   4.820243794017830E-1    8.344745814707145E-1
 1.030000000000000E+10   5.782651243404517E-1    7.727526212056758E-1
 1.031000000000000E+10   6.628150477893615E-1    7.037755962036514E-1
 1.032000000000000E+10   7.356283499027065E-1    6.297052869049256E-1
 1.033000000000000E+10   7.969264856768847E-1    5.511873842354109E-1
 1.034000000000000E+10   8.474199106612262E-1    4.694033537402551E-1
 1.035000000000000E+10   8.876245671960512E-1    3.849830432060868E-1
 1.036000000000000E+10   9.188515850003912E-1    2.981656246041767E-1
 1.037000000000000E+10   9.414592401385516E-1    2.098195525380309E-1
 1.038000000000000E+10   9.562021252933959E-1    1.210484923865005E-1
 1.039000000000000E+10   9.633421099862424E-1    3.325023502918261E-2
 1.040000000000000E+10   9.635425737943897E-1   -5.263079836012103E-2
 1.041000000000000E+10   9.571870259671563E-1   -1.353230655303337E-1
 1.042000000000000E+10   9.440340724503590E-1   -2.144055328946635E-1
 1.043000000000000E+10   9.247342353281143E-1   -2.893468165133065E-1
 1.044000000000000E+10   8.991366127595116E-1   -3.607854914509769E-1
 1.045000000000000E+10   8.676703532171083E-1   -4.286159958865907E-1
 1.046000000000000E+10   8.299617049423916E-1   -4.936183798490589E-1
 1.047000000000000E+10   7.868442702998257E-1   -5.557127906181967E-1
 1.048000000000000E+10   7.388925283724527E-1   -6.152280664769023E-1
 1.049000000000000E+10   6.864157217080157E-1   -6.713122233718037E-1
 1.050000000000000E+10   6.305891221797554E-1   -7.236936244689289E-1
 1.051000000000000E+10   5.720706008873755E-1   -7.716495316967963E-1
 1.052000000000000E+10   5.114335699687200E-1   -8.142877972134570E-1
 1.053000000000000E+10   4.489610631795108E-1   -8.515630056061512E-1
 1.054000000000000E+10   3.846362891858150E-1   -8.829816064192370E-1
 1.055000000000000E+10   3.181337590977074E-1   -9.084406103699905E-1
 1.056000000000000E+10   2.490118748247132E-1   -9.283052486151701E-1
 1.057000000000000E+10   1.770372923325721E-1   -9.422352662457073E-1
 1.058000000000000E+10   1.024519348699926E-1   -9.506247842958631E-1
 1.059000000000000E+10   2.545983546807192E-2   -9.535104032312457E-1
 1.060000000000000E+10  -5.295886431862221E-2   -9.508988915857788E-1
 1.061000000000000E+10  -1.320033347428856E-1   -9.427633721223306E-1
 1.062000000000000E+10  -2.102564814902785E-1   -9.288720912502073E-1
 1.063000000000000E+10  -2.868255656125185E-1   -9.090410584894209E-1
 1.064000000000000E+10  -3.610047769271229E-1   -8.827323219209579E-1
 1.065000000000000E+10  -4.321718149952612E-1   -8.498883190128411E-1
 1.066000000000000E+10  -5.006231852551433E-1   -8.101395085166224E-1
 1.067000000000000E+10  -5.661101957148428E-1   -7.631622052891900E-1
 1.068000000000000E+10  -6.288334140496332E-1   -7.087844946582046E-1
 1.069000000000000E+10  -6.885624322298743E-1   -6.469509544408844E-1
 1.070000000000000E+10  -7.445503667878169E-1   -5.780568555553883E-1
 1.071000000000000E+10  -7.958456593419606E-1   -5.027721417290609E-1
 1.072000000000000E+10  -8.409778680777797E-1   -4.221553270205432E-1
 1.073000000000000E+10  -8.789119312592104E-1   -3.372400085408742E-1
 1.074000000000000E+10  -9.084708095795739E-1   -2.489593176045975E-1
 1.075000000000000E+10  -9.288244602558418E-1   -1.584837487256985E-1
 1.076000000000000E+10  -9.391445896369446E-1   -6.576087376210617E-2
 1.077000000000000E+10  -9.395530674627876E-1    2.852186496691637E-2
 1.078000000000000E+10  -9.293798048828729E-1    1.246821507254890E-1
 1.079000000000000E+10  -9.085854500012485E-1    2.216879726993669E-1
 1.080000000000000E+10  -8.771700508228093E-1    3.188233530694234E-1
 1.081000000000000E+10  -8.350423738499971E-1    4.144972305473819E-1
 1.082000000000000E+10  -7.826063695362293E-1    5.073854918474666E-1
 1.083000000000000E+10  -7.201499595059203E-1    5.945189981974562E-1
 1.084000000000000E+10  -6.485906880605674E-1    6.744974614494101E-1
 1.085000000000000E+10  -5.685802508520514E-1    7.452796290203170E-1
 1.086000000000000E+10  -4.813562140474703E-1    8.055120244522034E-1
 1.087000000000000E+10  -3.876266077277543E-1    8.548464681757547E-1
 1.088000000000000E+10  -2.876262921928024E-1    8.927027436325767E-1
 1.089000000000000E+10  -1.826743262810878E-1    9.190355805410466E-1
 1.090000000000000E+10  -7.367733790047916E-2    9.334971414108011E-1
 1.091000000000000E+10   3.765005086838270E-2    9.361948079389432E-1
 1.092000000000000E+10   1.496512136313916E-1    9.265754468826599E-1
 1.093000000000000E+10   2.597594373636254E-1    9.043661251753837E-1
 1.094000000000000E+10   3.657726115338321E-1    8.703835086298159E-1
 1.095000000000000E+10   4.652867754600075E-1    8.249293095258414E-1
 1.096000000000000E+10   5.573066421732400E-1    7.688271995031764E-1
 1.097000000000000E+10   6.406071110983750E-1    7.033338348679253E-1
 1.098000000000000E+10   7.149343041354600E-1    6.290498043044471E-1
 1.099000000000000E+10   7.804316398184534E-1    5.469892249448347E-1
 1.100000000000000E+10   8.366490502808538E-1    4.580229079872048E-1
 1.101000000000000E+10   8.832971097525175E-1    3.631281939859661E-1
 1.102000000000000E+10   9.197371490160078E-1    2.633600378341367E-1
 1.103000000000000E+10   9.456327922070219E-1    1.606244544170462E-1
 1.104000000000000E+10   9.601603445168870E-1    5.663884501247032E-2
 1.105000000000000E+10   9.632093796788052E-1   -4.642835018356958E-2
 1.106000000000000E+10   9.553102587023353E-1   -1.472968077756690E-1
 1.107000000000000E+10   9.366979145685698E-1   -2.446553529455731E-1
 1.108000000000000E+10   9.080423898814081E-1   -3.382653250558315E-1
 1.109000000000000E+10   8.700839078429697E-1   -4.275430789271175E-1
 1.110000000000000E+10   8.236925148092697E-1   -5.121702455766386E-1
 1.111000000000000E+10   7.693179726418989E-1   -5.921163533126218E-1
 1.112000000000000E+10   7.071853372848166E-1   -6.666980660031913E-1
 1.113000000000000E+10   6.381390307435326E-1   -7.351140977784948E-1
 1.114000000000000E+10   5.625863997812648E-1   -7.963538034291656E-1
 1.115000000000000E+10   4.818604109480309E-1   -8.493317265145550E-1
 1.116000000000000E+10   3.963497121133414E-1   -8.933133024104343E-1
 1.117000000000000E+10   3.073561631944983E-1   -9.276409577399032E-1
 1.118000000000000E+10   2.163228480091394E-1   -9.526944580769316E-1
 1.119000000000000E+10   1.236652143285515E-1   -9.683989922464085E-1
 1.120000000000000E+10   2.964808043183921E-2   -9.751956675437238E-1
 1.121000000000000E+10  -6.508828202041317E-2   -9.731010102573774E-1
 1.122000000000000E+10  -1.595138767250323E-1   -9.623161660123838E-1
 1.123000000000000E+10  -2.531693749995562E-1   -9.425570891991432E-1
 1.124000000000000E+10  -3.447126777238328E-1   -9.133439784017754E-1
 1.125000000000000E+10  -4.328153512858582E-1   -8.753358332149860E-1
 1.126000000000000E+10  -5.164529615764275E-1   -8.283815285707047E-1
 1.127000000000000E+10  -5.943014252363787E-1   -7.729290883910188E-1
 1.128000000000000E+10  -6.660261898395371E-1   -7.099983174836743E-1
 1.129000000000000E+10  -7.306866094742216E-1   -6.401272708819402E-1
 1.130000000000000E+10  -7.884187501794682E-1   -5.637565351847011E-1
 1.131000000000000E+10  -8.383426772597452E-1   -4.817225845900578E-1
 1.132000000000000E+10  -8.808980673022487E-1   -3.948315861275215E-1
 1.133000000000000E+10  -9.149560001796473E-1   -3.037631769903237E-1
 1.134000000000000E+10  -9.400877214996888E-1   -2.093700437693362E-1
 1.135000000000000E+10  -9.555589051785555E-1   -1.124504398835030E-1
 1.136000000000000E+10  -9.607416907310908E-1   -1.445809452543186E-2
 1.137000000000000E+10  -9.553368270437401E-1    8.329045684607470E-2
 1.138000000000000E+10  -9.394254130376199E-1    1.797073163906642E-1
 1.139000000000000E+10  -9.138359469043975E-1    2.735253355060787E-1
 1.140000000000000E+10  -8.789246218659607E-1    3.639970173456135E-1
 1.141000000000000E+10  -8.353958400196647E-1    4.503023676887766E-1
 1.142000000000000E+10  -7.837837200585075E-1    5.319813626426976E-1
 1.143000000000000E+10  -7.246970206437828E-1    6.082434289563514E-1
 1.144000000000000E+10  -6.583897279721885E-1    6.786140445274829E-1
 1.145000000000000E+10  -5.853691172721091E-1    7.417908202076784E-1
 1.146000000000000E+10  -5.062917832616317E-1    7.966988480068085E-1
 1.147000000000000E+10  -4.222430684665381E-1    8.428415655271079E-1
 1.148000000000000E+10  -3.342638057310484E-1    8.797829029481768E-1
 1.149000000000000E+10  -2.432922833967501E-1    9.075058593420418E-1
 1.150000000000000E+10  -1.507396037450991E-1    9.257580067761879E-1
 1.151000000000000E+10  -5.741159180091730E-2    9.351324656797158E-1
 1.152000000000000E+10   3.586566289374549E-2    9.355966120428544E-1
 1.153000000000000E+10   1.284096485068366E-1    9.273532663902926E-1
 1.154000000000000E+10   2.193860136378429E-1    9.106646758519933E-1
 1.155000000000000E+10   3.079381948103364E-1    8.853892268629111E-1
 1.156000000000000E+10   3.934591861479561E-1    8.515516068324041E-1
 1.157000000000000E+10   4.748046968598651E-1    8.093429210651750E-1
 1.158000000000000E+10   5.509542520709296E-1    7.594856141768958E-1
 1.159000000000000E+10   6.214715572647056E-1    7.023504530342141E-1
 1.160000000000000E+10   6.856126347554264E-1    6.396199941715650E-1
 1.161000000000000E+10   7.428922435811310E-1    5.719678623101085E-1
 1.162000000000000E+10   7.935344248729796E-1    5.003153735844331E-1
 1.163000000000000E+10   8.372620272864765E-1    4.252957509540479E-1
 1.164000000000000E+10   8.738815325946880E-1    3.476115686978415E-1
 1.165000000000000E+10   9.028597861893282E-1    2.675255417538913E-1
 1.166000000000000E+10   9.241461384974298E-1    1.851860569340733E-1
 1.167000000000000E+10   9.371731611659548E-1    1.013702857697718E-1
 1.168000000000000E+10   9.419060975840812E-1    1.649715725611757E-2
 1.169000000000000E+10   9.388821256040443E-1   -6.860775779746878E-2
 1.170000000000000E+10   9.280376995995645E-1   -1.527779610088607E-1
 1.171000000000000E+10   9.104278158729598E-1   -2.357927901546513E-1
 1.172000000000000E+10   8.860955897124263E-1   -3.162536803591724E-1
 1.173000000000000E+10   8.557180773666463E-1   -3.936904557320228E-1
 1.174000000000000E+10   8.195933327404764E-1   -4.672790651906841E-1
 1.175000000000000E+10   7.776083856817212E-1   -5.369569525040001E-1
 1.176000000000000E+10   7.300249044467670E-1   -6.018321810387354E-1
 1.177000000000000E+10   6.769405073281587E-1   -6.618550224756419E-1
 1.178000000000000E+10   6.183543935408428E-1   -7.171200612078538E-1
 1.179000000000000E+10   5.542485044719925E-1   -7.668889490846522E-1
 1.180000000000000E+10   4.854546599513302E-1   -8.112960686993966E-1
 1.181000000000000E+10   4.123150521281488E-1   -8.501066336890799E-1
 1.182000000000000E+10   3.359078838428550E-1   -8.827993792203584E-1
 1.183000000000000E+10   2.571549733910382E-1   -9.097018096848768E-1
 1.184000000000000E+10   1.763444385974164E-1   -9.301340254047396E-1
 1.185000000000000E+10   9.437137844490132E-2   -9.436711810518172E-1
 1.186000000000000E+10   1.148835058959208E-2   -9.502614078902843E-1
 1.187000000000000E+10  -7.179601571430413E-2   -9.490919430888504E-1
 1.188000000000000E+10  -1.551529963720598E-1   -9.398829933138052E-1
 1.189000000000000E+10  -2.381343750795678E-1   -9.224398240488256E-1
 1.190000000000000E+10  -3.200752428373287E-1   -8.969132663407337E-1
 1.191000000000000E+10  -4.003706701829901E-1   -8.636369860040630E-1
 1.192000000000000E+10  -4.786506057436908E-1   -8.228564585177830E-1
 1.193000000000000E+10  -5.535963934180242E-1   -7.749389656904880E-1
 1.194000000000000E+10  -6.246832887321921E-1   -7.207401779059359E-1
 1.195000000000000E+10  -6.906280157627911E-1   -6.600407655408292E-1
 1.196000000000000E+10  -7.511756446835272E-1   -5.931963720940219E-1
 1.197000000000000E+10  -8.049813865528413E-1   -5.195666522745633E-1
 1.198000000000000E+10  -8.517883927312531E-1   -4.404058204854815E-1
 1.199000000000000E+10  -8.903193312639730E-1   -3.549100085381354E-1
 1.200000000000000E+10  -9.205941910047849E-1   -2.638400111821205E-1
 1.201000000000000E+10  -9.415350129623051E-1   -1.681434015056979E-1
 1.202000000000000E+10  -9.529731069891657E-1   -6.835453157128776E-2
 1.203000000000000E+10  -9.545185230280948E-1    3.335429391684500E-2
 1.204000000000000E+10  -9.458345897884662E-1    1.354948029278252E-1
 1.205000000000000E+10  -9.267452280078383E-1    2.361855387095735E-1
 1.206000000000000E+10  -8.970369018008820E-1    3.343545501988910E-1
 1.207000000000000E+10  -8.568651312524166E-1    4.288679748657210E-1
 1.208000000000000E+10  -8.056277718772051E-1    5.184406317486564E-1
 1.209000000000000E+10  -7.434520135757140E-1    6.022793449871762E-1
 1.210000000000000E+10  -6.709449793289300E-1    6.792645734055159E-1
 1.211000000000000E+10  -5.886032128359804E-1    7.482141469502480E-1
 1.212000000000000E+10  -4.978905628415488E-1    8.086645576258684E-1
 1.213000000000000E+10  -4.003856030296650E-1    8.590953812721215E-1
 1.214000000000000E+10  -2.983060907906597E-1    8.989033479994742E-1
 1.215000000000000E+10  -1.924751281027253E-1    9.269872526857545E-1
 1.216000000000000E+10  -8.529383094874093E-2    9.429847467703860E-1
 1.217000000000000E+10   2.187459927868155E-2    9.461248420456401E-1
 1.218000000000000E+10   1.279878045493803E-1    9.363979934102825E-1
 1.219000000000000E+10   2.316476979094423E-1    9.134704353470979E-1
 1.220000000000000E+10   3.320454570682763E-1    8.781770613057907E-1
 1.221000000000000E+10   4.279221709211016E-1    8.312988981065377E-1
 1.222000000000000E+10   5.180186577126241E-1    7.737427077360637E-1
 1.223000000000000E+10   6.014793316362028E-1    7.074137650576668E-1
 1.224000000000000E+10   6.771176773631570E-1    6.332533583372524E-1
 1.225000000000000E+10   7.432849973644846E-1    5.533173828045684E-1
 1.226000000000000E+10   7.991491055836684E-1    4.689440918009991E-1
 1.227000000000000E+10   8.446807213034676E-1    3.812734865799768E-1
 1.228000000000000E+10   8.792029390533110E-1    2.909302772171083E-1
 1.229000000000000E+10   9.026701436167731E-1    1.985255491467926E-1
 1.230000000000000E+10   9.157114795414658E-1    1.047208646350888E-1
 1.231000000000000E+10   9.183905783701302E-1    9.899132658158723E-3
 1.232000000000000E+10   9.111301244994153E-1   -8.457858954835777E-2
 1.233000000000000E+10   8.949936124483202E-1   -1.778937667561041E-1
 1.234000000000000E+10   8.704594474940521E-1   -2.683381335603809E-1
 1.235000000000000E+10   8.385712248929295E-1   -3.548027088400735E-1
 1.236000000000000E+10   7.998623327143977E-1   -4.358546369442095E-1
 1.237000000000000E+10   7.552712449370698E-1   -5.106326749178126E-1
 1.238000000000000E+10   7.048448015914768E-1   -5.785992593815978E-1
 1.239000000000000E+10   6.492173251593613E-1   -6.399284358035251E-1
 1.240000000000000E+10   5.883491122337651E-1   -6.944010462176508E-1
 1.241000000000000E+10   5.226144642184160E-1   -7.424544601477229E-1
 1.242000000000000E+10   4.523714979978985E-1   -7.846689457874761E-1
 1.243000000000000E+10   3.786677556914675E-1   -8.208659431499437E-1
 1.244000000000000E+10   3.023656584384193E-1   -8.508298246677650E-1
 1.245000000000000E+10   2.247071223917931E-1   -8.746642695644629E-1
 1.246000000000000E+10   1.464888481436366E-1   -8.922456581954957E-1
 1.247000000000000E+10   6.905727610386934E-2   -9.029258780680218E-1
 1.248000000000000E+10  -7.182469049505214E-3   -9.068854282914065E-1
 1.249000000000000E+10  -8.213762961930333E-2   -9.039587211995844E-1
 1.250000000000000E+10  -1.555175821311740E-1   -8.941840510241544E-1
