#  HZ   S   RI   R     50.00 
! Rohde & Schwarz Vector Network Analyzer 
! Rohde-Schwarz,ZNA43-4Port,1332450044101932,2.92
! Created: UTC 6/1/2026, 11:34:37 AM
! freq[Hz]                re:S11                  im:S11
 8.000000000000000E9     3.701064000767423E-1    9.050152226492199E-1
 8.010000000000000E9     4.432320078374676E-1    8.726103402424578E-1
 8.020000000000000E9     5.141228528887326E-1    8.333776007848320E-1
 8.030000000000000E9     5.825814144254117E-1    7.868369056021293E-1
 8.040000000000000E9     6.484129287806089E-1    7.324033814512555E-1
 8.050000000000000E9     7.109147492709775E-1    6.703081872912918E-1
 8.060000000000000E9     7.691339333093626E-1    6.006776349668262E-1
 8.070000000000000E9     8.225905413405729E-1    5.238421926466786E-1
 8.080000000000000E9     8.701095121128106E-1    4.402273114405194E-1
 8.090000000000000E9     9.103575045710980E-1    3.505096230298017E-1
 8.100000000000000E9     9.421531921673931E-1    2.541846584872070E-1
 8.110000000000000E9     9.640623671323093E-1    1.517288982448405E-1
 8.120000000000000E9     9.746091741648782E-1    4.360334052941768E-2
 8.130000000000000E9     9.715792714521235E-1   -7.004015292374899E-2
 8.140000000000000E9     9.535488748907937E-1   -1.881036698451588E-1
 8.150000000000000E9     9.185387133241684E-1   -3.093237886390954E-1
 8.160000000000000E9     8.656077160167929E-1   -4.309143913085898E-1
 8.170000000000000E9     7.930744574504934E-1   -5.500532689376136E-1
 8.180000000000000E9     7.005193318050210E-1   -6.626476986690736E-1
 8.190000000000000E9     5.874755976290171E-1   -7.643544151978777E-1
 8.200000000000000E9     4.546508936558282E-1   -8.499671470897155E-1
 8.210000000000000E9     3.028313592912192E-1   -9.144126040235588E-1
 8.220000000000000E9     1.352817014934226E-1   -9.518952222237989E-1
 8.230000000000000E9    -4.333197406401423E-2   -9.577687645393188E-1
 8.240000000000000E9    -2.263089975056103E-1   -9.280901982872011E-1
 8.250000000000000E9    -4.053482121760655E-1   -8.609762170283733E-1
 8.260000000000000E9    -5.700914967415472E-1   -7.562661114033414E-1
 8.270000000000000E9    -7.046309422963032E-1   -6.171524907794604E-1
 8.280000000000000E9    -8.003069827323352E-1   -4.764928384829347E-1
 8.290000000000000E9    -8.911215549698147E-1   -3.188958047520339E-1
 8.300000000000000E9    -9.429337369445324E-1   -1.392806941560010E-1
 8.310000000000000E9    -9.548463100512298E-1    4.314545793282748E-2
 8.320000000000000E9    -9.309565626270917E-1    2.196202840497967E-1
 8.330000000000000E9    -8.760082239267918E-1    3.839318566395574E-1
 8.340000000000000E9    -7.950272784048453E-1    5.315317391791636E-1
 8.350000000000000E9    -6.938647857128880E-1    6.590515818195765E-1
 8.360000000000000E9    -5.788457014664329E-1    7.644895643508435E-1
 8.370000000000000E9    -4.549486990398836E-1    8.475309252126221E-1
 8.380000000000000E9    -3.264446425053631E-1    9.079938798976551E-1
 8.390000000000000E9    -1.966502222970850E-1    9.472075736685833E-1
 8.400000000000000E9    -6.804837986861409E-2    9.667088227859157E-1
 8.410000000000000E9     5.767791128873210E-2    9.677515865561180E-1
 8.420000000000000E9     1.794150903960874E-1    9.520977337672566E-1
 8.430000000000000E9     2.960696240081632E-1    9.215649232607942E-1
 8.440000000000000E9     4.063011342540833E-1    8.778889670283314E-1
 8.450000000000000E9     5.089586732484547E-1    8.228506359311767E-1
 8.460000000000000E9     6.027420631525368E-1    7.580541531620991E-1
 8.470000000000000E9     6.868416412077006E-1    6.853156494532588E-1
 8.480000000000000E9     7.603170078606023E-1    6.058722917685534E-1
 8.490000000000000E9     8.230025181860874E-1    5.207501133698426E-1
 8.500000000000000E9     8.746603295088269E-1    4.309478373024485E-1
 8.510000000000000E9     9.152122368546702E-1    3.356332585228485E-1
 8.520000000000000E9     9.449688839933744E-1    2.358055703752139E-1
 8.530000000000000E9     9.633228850758787E-1    1.324205962261503E-1
 8.540000000000000E9     9.706809154897656E-1    2.644115336081291E-2
 8.550000000000000E9     9.670018873730712E-1   -8.074387022044646E-2
 8.560000000000000E9     9.520609915724685E-1   -1.876520321223847E-1
 8.570000000000000E9     9.261121536157755E-1   -2.923072679354080E-1
 8.580000000000000E9     8.892315021587026E-1   -3.934891722489319E-1
 8.590000000000000E9     8.414932997718596E-1   -4.894437121513304E-1
 8.600000000000000E9     7.827124496797284E-1   -5.792944379633317E-1
 8.610000000000000E9     7.132954901076298E-1   -6.621270681518312E-1
 8.620000000000000E9     6.333936152046172E-1   -7.370262315933648E-1
 8.630000000000000E9     5.435111266577874E-1   -8.032022845868467E-1
 8.640000000000000E9     4.450122346400945E-1   -8.596983272505141E-1
 8.650000000000000E9     3.392696277131039E-1   -9.053107401405773E-1
 8.660000000000000E9     2.277352324480070E-1   -9.393085587712479E-1
 8.670000000000000E9     1.125381425268938E-1   -9.605138201761244E-1
 8.680000000000000E9    -4.163736961499052E-3   -9.680379314805240E-1
 8.690000000000000E9    -1.206931881050217E-1   -9.613090155881518E-1
 8.700000000000000E9    -2.356072906405358E-1   -9.401889089032334E-1
 8.710000000000000E9    -3.470195481253340E-1   -9.043211277424881E-1
 8.720000000000000E9    -4.540906428940605E-1   -8.541397901234911E-1
 8.730000000000000E9    -5.549642241244376E-1   -7.901111258456586E-1
 8.740000000000000E9    -6.480173292872210E-1   -7.134836863252676E-1
 8.750000000000000E9    -7.318586155821052E-1   -6.256112560026997E-1
 8.760000000000000E9    -8.046769671961256E-1   -5.288672779499627E-1
 8.770000000000000E9    -8.651247521826444E-1   -4.248786773151859E-1
 8.780000000000000E9    -9.121668024081543E-1   -3.159736568398108E-1
 8.790000000000000E9    -9.452154213630479E-1   -2.039178572211395E-1
 8.800000000000000E9    -9.638172200748772E-1   -9.014677589020541E-2
 8.810000000000000E9    -9.679249477645965E-1    2.387201953658427E-2
 8.820000000000000E9    -9.577145633286577E-1    1.370387854891595E-1
 8.830000000000000E9    -9.338766218851831E-1    2.479700769621854E-1
 8.840000000000000E9    -8.971589985008152E-1    3.555861399339299E-1
 8.850000000000000E9    -8.487614303974305E-1    4.581933888281691E-1
 8.860000000000000E9    -7.896069948851241E-1    5.543604743779964E-1
 8.870000000000000E9    -7.212149906764097E-1    6.424787639355163E-1
 8.880000000000000E9    -6.448074375355056E-1    7.211159540384542E-1
 8.890000000000000E9    -5.615364920980672E-1    7.894424793391988E-1
 8.900000000000000E9    -4.724250365564130E-1    8.469494958648713E-1
 8.910000000000000E9    -3.783946141447171E-1    8.931290169873635E-1
 8.920000000000000E9    -2.798208002599077E-1    9.280860048926868E-1
 8.930000000000000E9    -1.775099259843654E-1    9.520335538770075E-1
 8.940000000000000E9    -7.256131329822814E-2    9.647576381034555E-1
 8.950000000000000E9     3.385613838629869E-2    9.662017772471487E-1
 8.960000000000000E9     1.401798925237964E-1    9.568816044954974E-1
 8.970000000000000E9     2.448732651933620E-1    9.363339671155393E-1
 8.980000000000000E9     3.465155033406452E-1    9.048735990111693E-1
 8.990000000000000E9     4.436104851792818E-1    8.626227907031575E-1
 9.000000000000000E9     5.353211273238364E-1    8.097094987087476E-1
 9.010000000000000E9     6.204612453768306E-1    7.462074465584522E-1
 9.020000000000000E9     6.982906066367208E-1    6.721386692770230E-1
 9.030000000000000E9     7.685307915960901E-1    5.877595214703110E-1
 9.040000000000000E9     8.301208352506465E-1    4.934620508608777E-1
 9.050000000000000E9     8.817058864013546E-1    3.903564436245647E-1
 9.060000000000000E9     9.218099539322137E-1    2.793862621376016E-1
 9.070000000000000E9     9.494903723337443E-1    1.623458972027754E-1
 9.080000000000000E9     9.626886082082923E-1    4.068050364794572E-2
 9.090000000000000E9     9.603078429415646E-1   -8.318497481119447E-2
 9.100000000000000E9     9.410174347480738E-1   -2.070920021962064E-1
 9.110000000000000E9     9.043274306571788E-1   -3.291712474869444E-1
 9.120000000000000E9     8.494735874668420E-1   -4.474030889502950E-1
 9.130000000000000E9     7.766476409507469E-1   -5.593542544456137E-1
 9.140000000000000E9     6.860975138798648E-1   -6.629106001689534E-1
 9.150000000000000E9     5.789003688933302E-1   -7.549609967842787E-1
 9.160000000000000E9     4.562148385885307E-1   -8.324119231518576E-1
 9.170000000000000E9     3.212537504319527E-1   -8.917694295071835E-1
 9.180000000000000E9     1.772083638049034E-1   -9.303536096274113E-1
 9.190000000000000E9     2.841431866763965E-2   -9.459720060583794E-1
 9.200000000000000E9    -1.203864773002227E-1   -9.375323368486189E-1
 9.210000000000000E9    -2.653849301586638E-1   -9.059926277999192E-1
 9.220000000000000E9    -4.027961934086445E-1   -8.521440887282393E-1
 9.230000000000000E9    -5.291272540026437E-1   -7.777090509396415E-1
 9.240000000000000E9    -6.421439046653868E-1   -6.856742881834601E-1
 9.250000000000000E9    -7.394519220380910E-1   -5.786282267636058E-1
 9.260000000000000E9    -8.188085787162286E-1   -4.598440435332908E-1
 9.270000000000000E9    -8.788329256217354E-1   -3.333721105751180E-1
 9.280000000000000E9    -9.187984929776490E-1   -2.027098259160803E-1
 9.290000000000000E9    -9.392118977071900E-1   -7.180465660178549E-2
 9.300000000000000E9    -9.407710067636476E-1    5.617599235947808E-2
 9.310000000000000E9    -9.257989796081005E-1    1.790211884217439E-1
 9.320000000000000E9    -8.958144639258427E-1    2.947151632910778E-1
 9.330000000000000E9    -8.532855382639076E-1    4.024159359805274E-1
 9.340000000000000E9    -7.999380836512657E-1    5.012046612346021E-1
 9.350000000000000E9    -7.378805760636322E-1    5.908866694819577E-1
 9.360000000000000E9    -6.683952603557665E-1    6.711048849425888E-1
 9.370000000000000E9    -5.927771175259943E-1    7.413112529396971E-1
 9.380000000000000E9    -5.127804667377329E-1    8.012642077491320E-1
 9.390000000000000E9    -4.294965448792160E-1    8.506020886722102E-1
 9.400000000000000E9    -3.446571512055577E-1    8.896898926083443E-1
 9.410000000000000E9    -2.591436897453200E-1    9.191316520912831E-1
 9.420000000000000E9    -1.740181941055265E-1    9.393979469919884E-1
 9.430000000000000E9    -8.998262429916198E-2    9.517050900711124E-1
 9.440000000000000E9    -7.264773650322597E-3    9.565874246984017E-1
 9.450000000000000E9     7.389936007911378E-2    9.547143073191370E-1
 9.460000000000000E9     1.534020942955121E-1    9.465615233168396E-1
 9.470000000000000E9     2.307639523403496E-1    9.322553264723701E-1
 9.480000000000000E9     3.057168620583476E-1    9.117666339574472E-1
 9.490000000000000E9     3.778931009952225E-1    8.854169865729660E-1
 9.500000000000000E9     4.467195821712006E-1    8.533490360462629E-1
 9.510000000000000E9     5.119006452997504E-1    8.163311349646917E-1
 9.520000000000000E9     5.732398190502719E-1    7.746232850145744E-1
 9.530000000000000E9     6.303967687063523E-1    7.289599756511951E-1
 9.540000000000000E9     6.835488274278894E-1    6.798085978747511E-1
 9.550000000000000E9     7.326573220293520E-1    6.273698578565071E-1
 9.560000000000000E9     7.778526282000868E-1    5.719608114883610E-1
 9.570000000000000E9     8.189272806834997E-1    5.134542541786618E-1
 9.580000000000000E9     8.557327595907936E-1    4.517694854534973E-1
 9.590000000000000E9     8.877179547935535E-1    3.869120838402211E-1
 9.600000000000000E9     9.148060546772108E-1    3.188446424706962E-1
 9.610000000000000E9     9.365253832208515E-1    2.480000167053946E-1
 9.620000000000000E9     9.525725330750437E-1    1.744772164361209E-1
 9.630000000000000E9     9.629114736047810E-1    9.903561369744038E-2
 9.640000000000000E9     9.674483999028273E-1    2.225608360377199E-2
 9.650000000000000E9     9.662754804899247E-1   -5.551346006020862E-2
 9.660000000000000E9     9.588233381726762E-1   -1.345051174549378E-1
 9.670000000000000E9     9.449963604534353E-1   -2.139788726616076E-1
 9.680000000000000E9     9.238032499173908E-1   -2.938958069284852E-1
 9.690000000000000E9     8.948357292808798E-1   -3.735636742308936E-1
 9.700000000000000E9     8.570634070775172E-1   -4.528737042247442E-1
 9.710000000000000E9     8.102706243047422E-1   -5.311129474376904E-1
 9.720000000000000E9     7.537778007747850E-1   -6.067648180593839E-1
 9.730000000000000E9     6.876282114981906E-1   -6.789648930513641E-1
 9.740000000000000E9     6.118237799958858E-1   -7.466056178037964E-1
 9.750000000000000E9     5.264553144008932E-1   -8.081763457636680E-1
 9.760000000000000E9     4.315949025222609E-1   -8.619644780039767E-1
 9.770000000000000E9     3.277213221174812E-1   -9.063520621418703E-1
 9.780000000000000E9     2.144764002617768E-1   -9.392168062503716E-1
 9.790000000000000E9     9.287535503583577E-2   -9.581664956726600E-1
 9.800000000000000E9    -3.596845320438154E-2   -9.604333567361693E-1
 9.810000000000000E9    -1.700112256494210E-1   -9.434767545875847E-1
 9.820000000000000E9    -3.059696943493606E-1   -9.049603023980551E-1
 9.830000000000000E9    -4.398213667017274E-1   -8.442803693852894E-1
 9.840000000000000E9    -5.665895471232869E-1   -7.608191814367031E-1
 9.850000000000000E9    -6.814080660709050E-1   -6.556921452498194E-1
 9.860000000000000E9    -7.796736722529254E-1   -5.311060199066070E-1
 9.870000000000000E9    -8.568079647290913E-1   -3.901660618634038E-1
 9.880000000000000E9    -9.089161553119937E-1   -2.366722484075580E-1
 9.890000000000000E9    -9.332312968869341E-1   -7.547680421614700E-2
 9.900000000000000E9    -9.285919731847854E-1    8.764934788113884E-2
 9.910000000000000E9    -8.952850997312813E-1    2.465722442049161E-1
 9.920000000000000E9    -8.357876285363085E-1    3.953673636866006E-1
 9.930000000000000E9    -7.541112774180594E-1    5.288288239042143E-1
 9.940000000000000E9    -6.554649086181832E-1    6.437568135032365E-1
 9.950000000000000E9    -5.446342644431609E-1    7.381029285934361E-1
 9.960000000000000E9    -4.263606950866602E-1    8.111187150644988E-1
 9.970000000000000E9    -3.044627723189601E-1    8.635431211831035E-1
 9.980000000000000E9    -1.819832663997954E-1    8.964081862761367E-1
 9.990000000000000E9    -6.128292714997518E-2    9.113505125046029E-1
 1.000000000000000E+10   5.565427204172086E-2    9.105656151510427E-1
 1.001000000000000E+10   1.674502743272638E-1    8.946956232758125E-1
 1.002000000000000E+10   2.725751705350991E-1    8.673938506238372E-1
 1.003000000000000E+10   3.696988539128468E-1    8.304923708699045E-1
 1.004000000000000E+10   4.582373603929458E-1    7.861019797631980E-1
 1.005000000000000E+10   5.379482493415521E-1    7.359301064351120E-1
 1.006000000000000E+10   6.088348576239792E-1    6.815400579406049E-1
 1.007000000000000E+10   6.712068741548408E-1    6.229805861727373E-1
 1.008000000000000E+10   7.255544249912651E-1    5.613540618715672E-1
 1.009000000000000E+10   7.724608514489206E-1    4.964451046565642E-1
 1.010000000000000E+10   8.122039689302339E-1    4.284382891759823E-1
 1.011000000000000E+10   8.454870557584743E-1    3.576196452589891E-1
 1.012000000000000E+10   8.724038877825431E-1    2.848426297598408E-1
 1.013000000000000E+10   8.935123977151915E-1    2.108702403058295E-1
 1.014000000000000E+10   9.091198686721144E-1    1.370954035603888E-1
 1.015000000000000E+10   9.194141668759251E-1    6.428124338070665E-2
 1.016000000000000E+10   9.244133627788312E-1   -7.147867054289721E-3
 1.017000000000000E+10   9.244206121167619E-1   -7.645476725737604E-2
 1.018000000000000E+10   9.190101353098493E-1   -1.439116217808491E-1
 1.019000000000000E+10   9.081715960456906E-1   -2.095747015201045E-1
 1.020000000000000E+10   8.917916091463594E-1   -2.738068374445115E-1
 1.021000000000000E+10   8.697777231888373E-1   -3.373473774567690E-1
 1.022000000000000E+10   8.420912540075325E-1   -4.001912706806420E-1
 1.023000000000000E+10   8.090255769577950E-1   -4.621427638501294E-1
 1.024000000000000E+10   7.710007686200522E-1   -5.225362728665520E-1
 1.025000000000000E+10   7.288293565739071E-1   -5.808705923855896E-1
 1.026000000000000E+10   6.829231118183645E-1   -6.360888871606494E-1
 1.027000000000000E+10   6.341148450069027E-1   -6.873605549462699E-1
 1.028000000000000E+10   5.822930157621916E-1   -7.343685951415954E-1
 1.029000000000000E+10   5.276125120981665E-1   -7.766485813049163E-1
 1.030000000000000E+10   4.695020246092654E-1   -8.141991635618677E-1
 1.031000000000000E+10   4.072626034750464E-1   -8.468278037668097E-1
 1.032000000000000E+10   3.405468104725064E-1   -8.746564829283895E-1
 1.033000000000000E+10   2.694453769190961E-1   -8.972549015319272E-1
 1.034000000000000E+10   1.943039988438192E-1   -9.148557108521835E-1
 1.035000000000000E+10   1.154486997010653E-1   -9.269131209641024E-1
 1.036000000000000E+10   3.390411367857061E-2   -9.330103791528990E-1
 1.037000000000000E+10  -4.907086523440686E-2   -9.326918041006431E-1
 1.038000000000000E+10  -1.324924539120998E-1   -9.253502495940388E-1
 1.039000000000000E+10  -2.154226000951571E-1   -9.104368363078287E-1
 1.040000000000000E+10  -2.973821621050599E-1   -8.872523702058155E-1
 1.041000000000000E+10  -3.782384671184413E-1   -8.552749152224407E-1
 1.042000000000000E+10  -4.573423970071899E-1   -8.139606861371618E-1
 1.043000000000000E+10  -5.347883148368606E-1   -7.626176550095687E-1
 1.044000000000000E+10  -6.097281991679968E-1   -7.011895821308933E-1
 1.045000000000000E+10  -6.807315202303166E-1   -6.295602456445502E-1
 1.046000000000000E+10  -7.464147228000675E-1   -5.487189796413032E-1
 1.047000000000000E+10  -8.047597457832978E-1   -4.593252276938501E-1
 1.048000000000000E+10  -8.536928246522544E-1   -3.622943255750172E-1
 1.049000000000000E+10  -8.918575345502221E-1   -2.589360033971603E-1
 1.050000000000000E+10  -9.171096510801304E-1   -1.506468937692244E-1
 1.051000000000000E+10  -9.287616957632793E-1   -3.788064320166951E-2
 1.052000000000000E+10  -9.255352640897185E-1    7.808892699027827E-2
 1.053000000000000E+10  -9.064932537031453E-1    1.963325615234893E-1
 1.054000000000000E+10  -8.708336942132948E-1    3.146794278587740E-1
 1.055000000000000E+10  -8.186705137192714E-1    4.311352558765613E-1
 1.056000000000000E+10  -7.503932000803480E-1    5.419201107851336E-1
 1.057000000000000E+10  -6.677693139273269E-1    6.444354503155505E-1
 1.058000000000000E+10  -5.719299018034730E-1    7.350784833349963E-1
 1.059000000000000E+10  -4.653947271858990E-1    8.110623419627205E-1
 1.060000000000000E+10  -3.502117944795422E-1    8.708211401738519E-1
 1.061000000000000E+10  -2.282921376469841E-1    9.129298454746921E-1
 1.062000000000000E+10  -1.019430149076562E-1    9.369898379641100E-1
 1.063000000000000E+10   2.693418954870344E-2    9.427469913174727E-1
 1.064000000000000E+10   1.558048908343916E-1    9.307437896556375E-1
 1.065000000000000E+10   2.824366226806790E-1    9.018366198609391E-1
 1.066000000000000E+10   4.035514985496002E-1    8.571574269124792E-1
 1.067000000000000E+10   5.162607766011439E-1    7.984392801562632E-1
 1.068000000000000E+10   6.181478960759664E-1    7.275422613456498E-1
 1.069000000000000E+10   7.074032200853819E-1    6.469278154580866E-1
 1.070000000000000E+10   7.831532595756648E-1    5.583264525115978E-1
 1.071000000000000E+10   8.451171078645626E-1    4.632825763576123E-1
 1.072000000000000E+10   8.937177806799305E-1    3.634372497978038E-1
 1.073000000000000E+10   9.294063904360089E-1    2.594300717516241E-1
 1.074000000000000E+10   9.527365651148707E-1    1.531314208585805E-1
 1.075000000000000E+10   9.642226461303766E-1    4.523427290024520E-2
 1.076000000000000E+10   9.645236542187013E-1   -6.210476063082176E-2
 1.077000000000000E+10   9.537119127908799E-1   -1.675650992646023E-1
 1.078000000000000E+10   9.329255565826639E-1   -2.684583594666254E-1
 1.079000000000000E+10   9.021263936316959E-1   -3.637443631784404E-1
 1.080000000000000E+10   8.629723820066323E-1   -4.524694596330846E-1
 1.081000000000000E+10   8.154286543917305E-1   -5.344200989024327E-1
 1.082000000000000E+10   7.604204224729124E-1   -6.090127563237022E-1
 1.083000000000000E+10   6.986159293574680E-1   -6.774676901225331E-1
 1.084000000000000E+10   6.300243751831678E-1   -7.392562013880287E-1
 1.085000000000000E+10   5.560831620801509E-1   -7.948705282580341E-1
 1.086000000000000E+10   4.768616902360556E-1   -8.440738408375846E-1
 1.087000000000000E+10   3.936840218692080E-1   -8.861546021798636E-1
 1.088000000000000E+10   3.083774519875959E-1   -9.202456669331660E-1
 1.089000000000000E+10   2.214243719456821E-1   -9.461717734808411E-1
 1.090000000000000E+10   1.339992661732972E-1   -9.630776978260638E-1
 1.091000000000000E+10   4.671922726295039E-2   -9.710107479173753E-1
 1.092000000000000E+10  -3.972446361766035E-2   -9.701265052851167E-1
 1.093000000000000E+10  -1.253119160662921E-1   -9.608941538375090E-1
 1.094000000000000E+10  -2.103742175407853E-1   -9.434021913590485E-1
 1.095000000000000E+10  -2.947409112246550E-1   -9.180493177990667E-1
 1.096000000000000E+10  -3.778010736039227E-1   -8.846503663680397E-1
 1.097000000000000E+10  -4.593265146017260E-1   -8.438710031086125E-1
 1.098000000000000E+10  -5.373713316839399E-1   -7.954913498831537E-1
 1.099000000000000E+10  -6.106511025940122E-1   -7.403198956064253E-1
 1.100000000000000E+10  -6.780401066007822E-1   -6.787766784329619E-1
 1.101000000000000E+10  -7.384773505828878E-1   -6.116594107751127E-1
 1.102000000000000E+10  -7.912604419239281E-1   -5.394487378188042E-1
 1.103000000000000E+10  -8.363719313579120E-1   -4.623096955462564E-1
 1.104000000000000E+10  -8.735167790398853E-1   -3.807179507568909E-1
 1.105000000000000E+10  -9.029877739097549E-1   -2.949672419443808E-1
 1.106000000000000E+10  -9.246851818472847E-1   -2.053657220231403E-1
 1.107000000000000E+10  -9.381403659591275E-1   -1.123853931488172E-1
 1.108000000000000E+10  -9.431292513969252E-1   -1.712040050892972E-2
 1.109000000000000E+10  -9.388260016000789E-1    7.904575477044096E-2
 1.110000000000000E+10  -9.249367991401095E-1    1.750723021690660E-1
 1.111000000000000E+10  -9.010251148175217E-1    2.689634545557182E-1
 1.112000000000000E+10  -8.673807724642698E-1    3.593425510013860E-1
 1.113000000000000E+10  -8.243563262944288E-1    4.452656349478966E-1
 1.114000000000000E+10  -7.725260030839453E-1    5.259561120266408E-1
 1.115000000000000E+10  -7.124653700526583E-1    6.010930452428130E-1
 1.116000000000000E+10  -6.448639082942818E-1    6.703692233772487E-1
 1.117000000000000E+10  -5.701984305012322E-1    7.331663409294530E-1
 1.118000000000000E+10  -4.888432932756058E-1    7.885670158105641E-1
 1.119000000000000E+10  -4.020760839028708E-1    8.358213652172343E-1
 1.120000000000000E+10  -3.109806088896917E-1    8.737267198132775E-1
 1.121000000000000E+10  -2.165283334477993E-1    9.013941936815999E-1
 1.122000000000000E+10  -1.201864658965202E-1    9.186266635705753E-1
 1.123000000000000E+10  -2.302418648368139E-2    9.249982003513934E-1
 1.124000000000000E+10   7.365548144011463E-2    9.210692409427563E-1
 1.125000000000000E+10   1.694526243180341E-1    9.070994946021356E-1
 1.126000000000000E+10   2.629257435332839E-1    8.835367488195229E-1
 1.127000000000000E+10   3.539108289726589E-1    8.509805134465480E-1
 1.128000000000000E+10   4.412808902059719E-1    8.095454882151445E-1
 1.129000000000000E+10   5.243498030901184E-1    7.596146228164091E-1
 1.130000000000000E+10   6.014537740862101E-1    7.017958703297572E-1
 1.131000000000000E+10   6.719071546980625E-1    6.367090665396944E-1
 1.132000000000000E+10   7.343041847774597E-1    5.651416670401080E-1
 1.133000000000000E+10   7.884456566759070E-1    4.878197217809726E-1
 1.134000000000000E+10   8.338214572430281E-1    4.060443050791266E-1
 1.135000000000000E+10   8.706365624310256E-1    3.206923831639975E-1
 1.136000000000000E+10   8.986232669008908E-1    2.323009319273433E-1
 1.137000000000000E+10   9.182606873688678E-1    1.418015398022827E-1
 1.138000000000000E+10   9.296073127247595E-1    4.984160373455293E-2
 1.139000000000000E+10   9.319403729926391E-1   -4.296725615297844E-2
 1.140000000000000E+10   9.253161299946564E-1   -1.355476404540167E-1
 1.141000000000000E+10   9.094331814384863E-1   -2.272309222463143E-1
 1.142000000000000E+10   8.840011733127122E-1   -3.166261034047160E-1
 1.143000000000000E+10   8.495081328921603E-1   -4.026725378894376E-1
 1.144000000000000E+10   8.065686556063871E-1   -4.844415529310254E-1
 1.145000000000000E+10   7.556614064818058E-1   -5.613187429257734E-1
 1.146000000000000E+10   6.975452463698871E-1   -6.332610351497587E-1
 1.147000000000000E+10   6.329736289513296E-1   -6.994853330820190E-1
 1.148000000000000E+10   5.618773855834902E-1   -7.596318956895421E-1
 1.149000000000000E+10   4.853201366326837E-1   -8.130098424082662E-1
 1.150000000000000E+10   4.030400642571050E-1   -8.588688720178286E-1
 1.151000000000000E+10   3.161486057100519E-1   -8.962618554227539E-1
 1.152000000000000E+10   2.254498706090414E-1   -9.246795428520121E-1
 1.153000000000000E+10   1.317915769898338E-1   -9.436306181710966E-1
 1.154000000000000E+10   3.599912877248512E-2   -9.524969677177640E-1
 1.155000000000000E+10  -6.048467987800954E-2   -9.511713231143423E-1
 1.156000000000000E+10  -1.565632791959729E-1   -9.399223236561192E-1
 1.157000000000000E+10  -2.515864471678864E-1   -9.192557553028350E-1
 1.158000000000000E+10  -3.445248594238272E-1   -8.892252111500030E-1
 1.159000000000000E+10  -4.343568532832950E-1   -8.496877147302002E-1
 1.160000000000000E+10  -5.207656259825540E-1   -8.004490607071969E-1
 1.161000000000000E+10  -6.024217572597665E-1   -7.418520639224143E-1
 1.162000000000000E+10  -6.781021689003740E-1   -6.732017064056058E-1
 1.163000000000000E+10  -7.463138176213863E-1   -5.957312915706312E-1
 1.164000000000000E+10  -8.059370642892323E-1   -5.099730522509064E-1
 1.165000000000000E+10  -8.565672814888413E-1   -4.174902810142448E-1
 1.166000000000000E+10  -8.966701836097315E-1   -3.198524825267329E-1
 1.167000000000000E+10  -9.264647788321382E-1   -2.182233783605030E-1
 1.168000000000000E+10  -9.452511837567765E-1   -1.141516070934206E-1
 1.169000000000000E+10  -9.524010038007060E-1   -8.339079209113200E-3
 1.170000000000000E+10  -9.479336251344371E-1    9.800994343909954E-2
 1.171000000000000E+10  -9.307601535496651E-1    2.031644030527498E-1
 1.172000000000000E+10  -9.011237014003485E-1    3.062146017332887E-1
 1.173000000000000E+10  -8.589389405155230E-1    4.060679382463257E-1
 1.174000000000000E+10  -8.045677010785536E-1    5.012706583208587E-1
 1.175000000000000E+10  -7.391118047885376E-1    5.900717555239757E-1
 1.176000000000000E+10  -6.637797656791745E-1    6.712741701296857E-1
 1.177000000000000E+10  -5.798560743248488E-1    7.433463922610032E-1
 1.178000000000000E+10  -4.891197245308195E-1    8.053483242223425E-1
 1.179000000000000E+10  -3.933262909767622E-1    8.562735221013037E-1
 1.180000000000000E+10  -2.935734119045882E-1    8.955416970586811E-1
 1.181000000000000E+10  -1.909963074348422E-1    9.225659235246528E-1
 1.182000000000000E+10  -8.669506097023374E-2    9.373062660270378E-1
 1.183000000000000E+10   1.842440020608367E-2    9.393518126345669E-1
 1.184000000000000E+10   1.225438772879442E-1    9.290582399188864E-1
 1.185000000000000E+10   2.245220896308404E-1    9.073642682051878E-1
 1.186000000000000E+10   3.227735340220464E-1    8.750129548282222E-1
 1.187000000000000E+10   4.161948317821459E-1    8.330800606860317E-1
 1.188000000000000E+10   5.037754124956102E-1    7.826304178995978E-1
 1.189000000000000E+10   5.843156894144520E-1    7.245745711214822E-1
 1.190000000000000E+10   6.572867929963059E-1    6.596636738276429E-1
 1.191000000000000E+10   7.219710694067771E-1    5.882640984151813E-1
 1.192000000000000E+10   7.777668495787179E-1    5.113671501409791E-1
 1.193000000000000E+10   8.244835543571923E-1    4.294686327803462E-1
 1.194000000000000E+10   8.618815193279311E-1    3.434228515787236E-1
 1.195000000000000E+10   8.904386675405210E-1    2.546195441009588E-1
 1.196000000000000E+10   9.101627272060296E-1    1.640819974906940E-1
 1.197000000000000E+10   9.216906186166542E-1    7.335708600875403E-2
 1.198000000000000E+10   9.247994532974593E-1   -1.642293348293472E-2
 1.199000000000000E+10   9.204376779762367E-1   -1.041987925140580E-1
 1.200000000000000E+10   9.085305114546903E-1   -1.890190537735044E-1
 1.201000000000000E+10   8.890160555344868E-1   -2.707048763461476E-1
 1.202000000000000E+10   8.623827699951065E-1   -3.488609804732194E-1
 1.203000000000000E+10   8.283961068246281E-1   -4.232826464592968E-1
 1.204000000000000E+10   7.872161573524556E-1   -4.941691241284432E-1
 1.205000000000000E+10   7.394094392190311E-1   -5.613739500493360E-1
 1.206000000000000E+10   6.855355817980948E-1   -6.245932540871436E-1
 1.207000000000000E+10   6.264345472269996E-1   -6.832581435378101E-1
 1.208000000000000E+10   5.629826829736145E-1   -7.371227206429906E-1
 1.209000000000000E+10   4.962878200998950E-1   -7.852455371298676E-1
 1.210000000000000E+10   4.271104943285405E-1   -8.273907023564189E-1
 1.211000000000000E+10   3.557234140858601E-1   -8.629929946203555E-1
 1.212000000000000E+10   2.824311579817991E-1   -8.916033857521065E-1
 1.213000000000000E+10   2.072856989752165E-1   -9.131758841530982E-1
 1.214000000000000E+10   1.301193420774587E-1   -9.273627188012113E-1
 1.215000000000000E+10   5.139571021952166E-2   -9.345941201273205E-1
 1.216000000000000E+10  -2.885702593920845E-2   -9.349119479703822E-1
 1.217000000000000E+10  -1.098802046845179E-1   -9.286639618778105E-1
 1.218000000000000E+10  -1.909993883688866E-1   -9.159719939685343E-1
 1.219000000000000E+10  -2.711684643456241E-1   -8.972234706876652E-1
 1.220000000000000E+10  -3.493787755345790E-1   -8.724158506874252E-1
 1.221000000000000E+10  -4.246852374592435E-1   -8.413405392795386E-1
 1.222000000000000E+10  -4.966810837968227E-1   -8.038776007438435E-1
 1.223000000000000E+10  -5.644094623555854E-1   -7.600212629162169E-1
 1.224000000000000E+10  -6.279660200287787E-1   -7.094594605329243E-1
 1.225000000000000E+10  -6.873150866979912E-1   -6.520255585535920E-1
 1.226000000000000E+10  -7.422122830500808E-1   -5.878497760885526E-1
 1.227000000000000E+10  -7.920136118897320E-1   -5.171334543166028E-1
 1.228000000000000E+10  -8.364810623552431E-1   -4.409359510815697E-1
 1.229000000000000E+10  -8.751103636251668E-1   -3.601330069845047E-1
 1.230000000000000E+10  -9.069542288892166E-1   -2.759298127496935E-1
 1.231000000000000E+10  -9.314263602340279E-1   -1.888443000322191E-1
 1.232000000000000E+10  -9.478589242132380E-1   -1.001015269176882E-1
 1.233000000000000E+10  -9.552958249006396E-1   -1.069608280794911E-2
 1.234000000000000E+10  -9.535792741855768E-1    7.977277586468459E-2
 1.235000000000000E+10  -9.417714271118806E-1    1.708661463721589E-1
 1.236000000000000E+10  -9.200938612087958E-1    2.620384303024695E-1
 1.237000000000000E+10  -8.878918438806440E-1    3.531170732799875E-1
 1.238000000000000E+10  -8.456799365484781E-1    4.427413642745472E-1
 1.239000000000000E+10  -7.932788883936548E-1    5.299688595405411E-1
 1.240000000000000E+10  -7.319552957022497E-1    6.127585932829135E-1
 1.241000000000000E+10  -6.621978480551086E-1    6.892851372126351E-1
 1.242000000000000E+10  -5.843707236385022E-1    7.580937547189718E-1
 1.243000000000000E+10  -4.991499394760396E-1    8.174839654077622E-1
 1.244000000000000E+10  -4.075913350693707E-1    8.668955469640550E-1
 1.245000000000000E+10  -3.099648615025569E-1    9.050117009837011E-1
 1.246000000000000E+10  -2.067878711963118E-1    9.313112412203142E-1
 1.247000000000000E+10  -9.953132252262860E-2    9.457012387621421E-1
 1.248000000000000E+10   1.086054204307823E-2    9.476670361183754E-1
 1.249000000000000E+10   1.225553887765795E-1    9.371007835420738E-1
 1.250000000000000E+10   2.328303465781978E-1    9.138381027803266E-1
