#  HZ   S   RI   R     50.00 
! Rohde & Schwarz Vector Network Analyzer 
! Rohde-Schwarz,ZNA43-4Port,1332450044101932,2.92
! Created: UTC 6/1/2026, 11:34:09 AM
! freq[Hz]                re:S11                  im:S11
 8.000000000000000E9     7.309446251002816E-1    4.328690291478249E-1
 8.010000000000000E9     7.686085505867714E-1    3.424678994203944E-1
 8.020000000000000E9     7.951161052022037E-1    2.430257999391492E-1
 8.030000000000000E9     8.086263908720397E-1    1.350878780333551E-1
 8.040000000000000E9     8.065653722305255E-1    1.991439587669692E-2
 8.050000000000000E9     7.866903076408690E-1   -9.997073614700354E-2
 8.060000000000000E9     7.467470104760930E-1   -2.212067549757504E-1
 8.070000000000000E9     6.848058955178412E-1   -3.396542834245412E-1
 8.080000000000000E9     5.995745130762765E-1   -4.500602743889065E-1
 8.090000000000000E9     4.909376105880473E-1   -5.464223026072210E-1
 8.100000000000000E9     3.599209550917885E-1   -6.223874470891256E-1
 8.110000000000000E9     2.099978988389630E-1   -6.714014735660601E-1
 8.120000000000000E9     4.733117177274376E-2   -6.880134675378036E-1
 8.130000000000000E9    -1.196024054750438E-1   -6.683767530553685E-1
 8.140000000000000E9    -2.808020943621934E-1   -6.120409902048410E-1
 8.150000000000000E9    -4.262805381572981E-1   -5.216341129873584E-1
 8.160000000000000E9    -5.470215153067447E-1   -4.027118953530302E-1
 8.170000000000000E9    -6.367695837702331E-1   -2.631105099416108E-1
 8.180000000000000E9    -6.920862453848170E-1   -1.115615747808348E-1
 8.190000000000000E9    -7.128697328063296E-1    4.336705576471938E-2
 8.200000000000000E9    -7.012136732768902E-1    1.942312580843524E-1
 8.210000000000000E9    -6.614268669741438E-1    3.348164561292938E-1
 8.220000000000000E9    -5.987678761122459E-1    4.608294531652382E-1
 8.230000000000000E9    -5.186175461401016E-1    5.694001278016237E-1
 8.240000000000000E9    -4.261325366370448E-1    6.592231459020655E-1
 8.250000000000000E9    -3.260883825307108E-1    7.298034562930539E-1
 8.260000000000000E9    -2.217665124287746E-1    7.816804180034677E-1
 8.270000000000000E9    -1.157859722639605E-1    8.156577485324924E-1
 8.280000000000000E9    -1.002306246135461E-2    8.331279389439442E-1
 8.290000000000000E9     9.445359286804590E-2    8.352521288403522E-1
 8.300000000000000E9     1.962977703708021E-1    8.232559139712277E-1
 8.310000000000000E9     2.942235862214858E-1    7.987392946761906E-1
 8.320000000000000E9     3.872536666525292E-1    7.631844910153098E-1
 8.330000000000000E9     4.742489392353789E-1    7.181439644321352E-1
 8.340000000000000E9     5.542286371999435E-1    6.650291297387387E-1
 8.350000000000000E9     6.263077526788356E-1    6.048000969534203E-1
 8.360000000000000E9     6.900518772663866E-1    5.384021116583310E-1
 8.370000000000000E9     7.451189617636539E-1    4.661623390564678E-1
 8.380000000000000E9     7.908979172923292E-1    3.886080178613155E-1
 8.390000000000000E9     8.274656020594635E-1    3.060793139273743E-1
 8.400000000000000E9     8.546456085170381E-1    2.188640128609056E-1
 8.410000000000000E9     8.724737866602229E-1    1.278191285709141E-1
 8.420000000000000E9     8.806632289601997E-1    3.402424279555141E-2
 8.430000000000000E9     8.791066822663161E-1   -6.134689543182203E-2
 8.440000000000000E9     8.677587337196712E-1   -1.567171266974613E-1
 8.450000000000000E9     8.464434485645654E-1   -2.505698293284694E-1
 8.460000000000000E9     8.147945113473842E-1   -3.414576909419869E-1
 8.470000000000000E9     7.726851502887794E-1   -4.286242577514994E-1
 8.480000000000000E9     7.198252910627001E-1   -5.109436370365088E-1
 8.490000000000000E9     6.561301847762410E-1   -5.876820148313973E-1
 8.500000000000000E9     5.817807161823404E-1   -6.580493120557867E-1
 8.510000000000000E9     4.966447378878950E-1   -7.201914684172175E-1
 8.520000000000000E9     4.019598098531099E-1   -7.735088223164592E-1
 8.530000000000000E9     2.995845367260932E-1   -8.160460274534781E-1
 8.540000000000000E9     1.912480499537924E-1   -8.466591346319793E-1
 8.550000000000000E9     7.896638888055564E-2   -8.639599350835417E-1
 8.560000000000000E9    -3.502085153293788E-2   -8.664815518134953E-1
 8.570000000000000E9    -1.486731906503448E-1   -8.537517764615161E-1
 8.580000000000000E9    -2.603685556955726E-1   -8.250210317083666E-1
 8.590000000000000E9    -3.680337298894296E-1   -7.802678602343101E-1
 8.600000000000000E9    -4.699042986448549E-1   -7.196211129352095E-1
 8.610000000000000E9    -5.641696750922837E-1   -6.440629122182786E-1
 8.620000000000000E9    -6.484829164385474E-1   -5.552612151969725E-1
 8.630000000000000E9    -7.207426982673043E-1   -4.551358235847398E-1
 8.640000000000000E9    -7.791415123226637E-1   -3.461168514336760E-1
 8.650000000000000E9    -8.218960276111185E-1   -2.307797321446188E-1
 8.660000000000000E9    -8.479276436290216E-1   -1.117547029023735E-1
 8.670000000000000E9    -8.564710544525944E-1    8.600294803925733E-3
 8.680000000000000E9    -8.473454788389601E-1    1.279296891041293E-1
 8.690000000000000E9    -8.210123597539073E-1    2.443694804690923E-1
 8.700000000000000E9    -7.780480118759593E-1    3.560225537794899E-1
 8.710000000000000E9    -7.197230204524177E-1    4.610260461304125E-1
 8.720000000000000E9    -6.477750033473615E-1    5.572082497660584E-1
 8.730000000000000E9    -5.643748984701408E-1    6.427010458150664E-1
 8.740000000000000E9    -4.716476201353911E-1    7.157697625353152E-1
 8.750000000000000E9    -3.717184692461978E-1    7.751543177063783E-1
 8.760000000000000E9    -2.664151830000802E-1    8.198794521201980E-1
 8.770000000000000E9    -1.576667192580000E-1    8.493791457951412E-1
 8.780000000000000E9    -4.636070456172207E-2    8.633302846978377E-1
 8.790000000000000E9     6.587541122832226E-2    8.616471528658359E-1
 8.800000000000000E9     1.773830523295473E-1    8.447664594335800E-1
 8.810000000000000E9     2.866248412563594E-1    8.129567931286876E-1
 8.820000000000000E9     3.916089033641679E-1    7.672508209528693E-1
 8.830000000000000E9     4.905532129061000E-1    7.085309937545490E-1
 8.840000000000000E9     5.809815387379123E-1    6.377268349833085E-1
 8.850000000000000E9     6.612407383959377E-1    5.560618388450463E-1
 8.860000000000000E9     7.292776217718171E-1    4.648073245281398E-1
 8.870000000000000E9     7.842535897231095E-1    3.649582424595231E-1
 8.880000000000000E9     8.248168478069514E-1    2.579294425899137E-1
 8.890000000000000E9     8.500651897768717E-1    1.445822412928064E-1
 8.900000000000000E9     8.596520598332719E-1    2.670488772978640E-2
 8.910000000000000E9     8.527989950610576E-1   -9.363029511756346E-2
 8.920000000000000E9     8.292596444753412E-1   -2.139658897938388E-1
 8.930000000000000E9     7.889871884832377E-1   -3.316561361888515E-1
 8.940000000000000E9     7.324616679372238E-1   -4.434120115735980E-1
 8.950000000000000E9     6.603768532601862E-1   -5.461305613495070E-1
 8.960000000000000E9     5.738557102209204E-1   -6.372449120348684E-1
 8.970000000000000E9     4.743213576244416E-1   -7.143999880966131E-1
 8.980000000000000E9     3.634722031278226E-1   -7.759546210729426E-1
 8.990000000000000E9     2.434769369461122E-1   -8.206255323036953E-1
 9.000000000000000E9     1.169504790060040E-1   -8.469108123534457E-1
 9.010000000000000E9    -1.338416716186715E-2   -8.548284404801513E-1
 9.020000000000000E9    -1.440974560720189E-1   -8.439774663294057E-1
 9.030000000000000E9    -2.713674124681738E-1   -8.145966813256075E-1
 9.040000000000000E9    -3.914568637965195E-1   -7.678674578169976E-1
 9.050000000000000E9    -5.018659192382827E-1   -7.052142522231789E-1
 9.060000000000000E9    -6.000216064130304E-1   -6.287493449468003E-1
 9.070000000000000E9    -6.843936359602928E-1   -5.401777043076534E-1
 9.080000000000000E9    -7.539891768243642E-1   -4.419420417917064E-1
 9.090000000000000E9    -8.084889041861183E-1   -3.362831526563295E-1
 9.100000000000000E9    -8.482787266436271E-1   -2.252619332557114E-1
 9.110000000000000E9    -8.731405324886371E-1   -1.113116624228261E-1
 9.120000000000000E9    -8.836209979655113E-1    2.966588860425934E-3
 9.130000000000000E9    -8.802696493816624E-1    1.152974089068750E-1
 9.140000000000000E9    -8.638836416745864E-1    2.233858459775465E-1
 9.150000000000000E9    -8.355572768022098E-1    3.254697778091694E-1
 9.160000000000000E9    -7.965662610463227E-1    4.201529689657033E-1
 9.170000000000000E9    -7.481829689387395E-1    5.067991340197980E-1
 9.180000000000000E9    -6.914316037013132E-1    5.851823721268385E-1
 9.190000000000000E9    -6.277646294192386E-1    6.553453731417446E-1
 9.200000000000000E9    -5.582836767193209E-1    7.175714228729665E-1
 9.210000000000000E9    -4.838338160384657E-1    7.721110358916057E-1
 9.220000000000000E9    -4.052471770791904E-1    8.185833819824930E-1
 9.230000000000000E9    -3.239165994046165E-1    8.569407129364216E-1
 9.240000000000000E9    -2.404697881826395E-1    8.869077286068279E-1
 9.250000000000000E9    -1.560432786317708E-1    9.082755771561938E-1
 9.260000000000000E9    -7.198695116194932E-2    9.210709690068165E-1
 9.270000000000000E9     1.127378680793024E-2    9.254262782159605E-1
 9.280000000000000E9     9.317813553365702E-2    9.218667190403655E-1
 9.290000000000000E9     1.734367162966230E-1    9.107012242313313E-1
 9.300000000000000E9     2.519582552971253E-1    8.925382611261711E-1
 9.310000000000000E9     3.286840223303011E-1    8.675695069067314E-1
 9.320000000000000E9     4.032057787894583E-1    8.361333378414703E-1
 9.330000000000000E9     4.752575015594235E-1    7.984463505900641E-1
 9.340000000000000E9     5.442881154736607E-1    7.545153100583750E-1
 9.350000000000000E9     6.093187687422988E-1    7.043817856117068E-1
 9.360000000000000E9     6.697026549724644E-1    6.481508750307760E-1
 9.370000000000000E9     7.247486742255808E-1    5.864263930870990E-1
 9.380000000000000E9     7.738108268204034E-1    5.192305133913205E-1
 9.390000000000000E9     8.164617019704685E-1    4.471533854785411E-1
 9.400000000000000E9     8.526689642651286E-1    3.702741737076556E-1
 9.410000000000000E9     8.818431476374267E-1    2.889749475178154E-1
 9.420000000000000E9     9.039440173816775E-1    2.034293240132045E-1
 9.430000000000000E9     9.182086215001193E-1    1.136028829157701E-1
 9.440000000000000E9     9.233753155201873E-1    1.990625555985536E-2
 9.450000000000000E9     9.184701187185436E-1   -7.695157958438643E-2
 9.460000000000000E9     9.021962994526954E-1   -1.759432358706900E-1
 9.470000000000000E9     8.735514344763029E-1   -2.761581651021594E-1
 9.480000000000000E9     8.317063907191127E-1   -3.753307465104148E-1
 9.490000000000000E9     7.759595901668269E-1   -4.718272244441011E-1
 9.500000000000000E9     7.064742765941087E-1   -5.638866296364448E-1
 9.510000000000000E9     6.223391861984150E-1   -6.487835501027759E-1
 9.520000000000000E9     5.236068980147263E-1   -7.244400634829368E-1
 9.530000000000000E9     4.112126314865527E-1   -7.880384731381314E-1
 9.540000000000000E9     2.858374985459986E-1   -8.363190617101771E-1
 9.550000000000000E9     1.491447503543915E-1   -8.655938262244619E-1
 9.560000000000000E9     4.269748869690973E-3   -8.723569831417155E-1
 9.570000000000000E9    -1.446732693849067E-1   -8.537431739713863E-1
 9.580000000000000E9    -2.921533707091443E-1   -8.084304158600206E-1
 9.590000000000000E9    -4.321101922705034E-1   -7.364155290958059E-1
 9.600000000000000E9    -5.585886460714916E-1   -6.392863954275839E-1
 9.610000000000000E9    -6.664963541769924E-1   -5.205156257186784E-1
 9.620000000000000E9    -7.511489245597759E-1   -3.846036275581046E-1
 9.630000000000000E9    -8.093801989692778E-1   -2.365568094469324E-1
 9.640000000000000E9    -8.396884464182022E-1   -8.236553443533469E-2
 9.650000000000000E9    -8.414019600313177E-1    7.208798182996622E-2
 9.660000000000000E9    -8.164715126046160E-1    2.204841130277695E-1
 9.670000000000000E9    -7.680015079027894E-1    3.584055311852611E-1
 9.680000000000000E9    -7.002714704006446E-1    4.819144179720871E-1
 9.690000000000000E9    -6.177079827583388E-1    5.890314389058764E-1
 9.700000000000000E9    -5.243842539787582E-1    6.786292305527263E-1
 9.710000000000000E9    -4.243357299302630E-1    7.504793953012793E-1
 9.720000000000000E9    -3.201943917462523E-1    8.054969236503153E-1
 9.730000000000000E9    -2.147082806752381E-1    8.442693489185973E-1
 9.740000000000000E9    -1.097143373311328E-1    8.679593680296127E-1
 9.750000000000000E9    -6.698200763816363E-3    8.778186719380129E-1
 9.760000000000000E9     9.295564612836853E-2    8.754533673800924E-1
 9.770000000000000E9     1.880709101587586E-1    8.622766726396280E-1
 9.780000000000000E9     2.775505874725447E-1    8.400805264710243E-1
 9.790000000000000E9     3.610831425832542E-1    8.103333833829652E-1
 9.800000000000000E9     4.382016138079189E-1    7.743578549626589E-1
 9.810000000000000E9     5.089381456302297E-1    7.332101899930346E-1
 9.820000000000000E9     5.731705106564808E-1    6.878065101034857E-1
 9.830000000000000E9     6.313178408382260E-1    6.381041210608702E-1
 9.840000000000000E9     6.834335693322910E-1    5.845801201971486E-1
 9.850000000000000E9     7.296528553666247E-1    5.274179066287756E-1
 9.860000000000000E9     7.699637744431065E-1    4.670322980428455E-1
 9.870000000000000E9     8.045404015704132E-1    4.040485634303925E-1
 9.880000000000000E9     8.337209317674633E-1    3.391446041463326E-1
 9.890000000000000E9     8.577024064052526E-1    2.733198462210179E-1
 9.900000000000000E9     8.766350162313419E-1    2.071845168324505E-1
 9.910000000000000E9     8.907005065880643E-1    1.412043915804004E-1
 9.920000000000000E9     8.999308331049533E-1    7.549987168252061E-2
 9.930000000000000E9     9.042510332610673E-1    1.022394897745981E-2
 9.940000000000000E9     9.033894141219260E-1   -5.479674311414676E-2
 9.950000000000000E9     8.972888240644640E-1   -1.197461805186018E-1
 9.960000000000000E9     8.856557775132944E-1   -1.847585469033357E-1
 9.970000000000000E9     8.685545428301669E-1   -2.495710575351985E-1
 9.980000000000000E9     8.462070854840106E-1   -3.140722676332176E-1
 9.990000000000000E9     8.186981909065211E-1   -3.776381966130643E-1
 1.000000000000000E+10   7.866537192066575E-1   -4.396082144373047E-1
 1.001000000000000E+10   7.504232946120987E-1   -4.999513617147395E-1
 1.002000000000000E+10   7.097351432740059E-1   -5.575208810628723E-1
 1.003000000000000E+10   6.646440185697257E-1   -6.122495623808605E-1
 1.004000000000000E+10   6.146027665853701E-1   -6.637490527789073E-1
 1.005000000000000E+10   5.591343077284924E-1   -7.118757432682791E-1
 1.006000000000000E+10   4.974008632336572E-1   -7.561317151536769E-1
 1.007000000000000E+10   4.292797426382200E-1   -7.960800435441351E-1
 1.008000000000000E+10   3.541713306834444E-1   -8.309095847789991E-1
 1.009000000000000E+10   2.725388799414690E-1   -8.600254190311808E-1
 1.010000000000000E+10   1.852388871948265E-1   -8.825258923325093E-1
 1.011000000000000E+10   9.307588632555959E-2   -8.970585786554806E-1
 1.012000000000000E+10  -2.454531893694998E-3   -9.032924763889595E-1
 1.013000000000000E+10  -1.007270682844361E-1   -8.993299756234552E-1
 1.014000000000000E+10  -2.007707389997521E-1   -8.839885414142532E-1
 1.015000000000000E+10  -3.014567313094438E-1   -8.559623086075466E-1
 1.016000000000000E+10  -4.021615824634874E-1   -8.136335223226631E-1
 1.017000000000000E+10  -5.014607994027348E-1   -7.552552098473559E-1
 1.018000000000000E+10  -5.968359818834296E-1   -6.800693586228740E-1
 1.019000000000000E+10  -6.857026274568579E-1   -5.879995239936792E-1
 1.020000000000000E+10  -7.646546382229904E-1   -4.793557134587642E-1
 1.021000000000000E+10  -8.295812341202239E-1   -3.563381921210327E-1
 1.022000000000000E+10  -8.767705160928286E-1   -2.217256652549301E-1
 1.023000000000000E+10  -9.035539402176668E-1   -7.941085911437229E-2
 1.024000000000000E+10  -9.074529714375211E-1    6.719596116719957E-2
 1.025000000000000E+10  -8.867095207948608E-1    2.137715078291172E-1
 1.026000000000000E+10  -8.410232331449315E-1    3.566836340154916E-1
 1.027000000000000E+10  -7.705110331022229E-1    4.917745455863912E-1
 1.028000000000000E+10  -6.767684406391069E-1    6.146715347218428E-1
 1.029000000000000E+10  -5.627579168297028E-1    7.209771363454556E-1
 1.030000000000000E+10  -4.331743003766155E-1    8.074073901280292E-1
 1.031000000000000E+10  -2.934689458926631E-1    8.710301235712061E-1
 1.032000000000000E+10  -1.494621839554021E-1    9.110252562279422E-1
 1.033000000000000E+10  -5.920582323435325E-3    9.275696038837750E-1
 1.034000000000000E+10   1.328788104091569E-1    9.220991326585777E-1
 1.035000000000000E+10   2.642085797056075E-1    8.963515374104275E-1
 1.036000000000000E+10   3.863851035581300E-1    8.529064215547070E-1
 1.037000000000000E+10   4.981800936920888E-1    7.939245553701256E-1
 1.038000000000000E+10   5.985792105089613E-1    7.221135858288857E-1
 1.039000000000000E+10   6.868591946904015E-1    6.401761222503486E-1
 1.040000000000000E+10   7.626088459704207E-1    5.510205592348328E-1
 1.041000000000000E+10   8.254101953610753E-1    4.572990387564409E-1
 1.042000000000000E+10   8.750521737022632E-1    3.609643328231719E-1
 1.043000000000000E+10   9.118746003994675E-1    2.643748321855054E-1
 1.044000000000000E+10   9.364146077398763E-1    1.680890672881534E-1
 1.045000000000000E+10   9.496120738898771E-1    7.339537040501609E-2
 1.046000000000000E+10   9.517750087224650E-1   -2.027354958354649E-2
 1.047000000000000E+10   9.442405892908018E-1   -1.120969440455235E-1
 1.048000000000000E+10   9.281054816011739E-1   -2.021665286325284E-1
 1.049000000000000E+10   9.034528301077183E-1   -2.897013728626476E-1
 1.050000000000000E+10   8.718745918558717E-1   -3.739717659530247E-1
 1.051000000000000E+10   8.340422113250900E-1   -4.539531729609977E-1
 1.052000000000000E+10   7.905911562515742E-1   -5.285205149002186E-1
 1.053000000000000E+10   7.423055689799075E-1   -5.972501479966079E-1
 1.054000000000000E+10   6.895415570942617E-1   -6.594495285949827E-1
 1.055000000000000E+10   6.322179712858872E-1   -7.151658311761977E-1
 1.056000000000000E+10   5.704325820767836E-1   -7.647869076046498E-1
 1.057000000000000E+10   5.037432557868649E-1   -8.081517170122491E-1
 1.058000000000000E+10   4.326201277742407E-1   -8.456627191216255E-1
 1.059000000000000E+10   3.572956019765928E-1   -8.776866934179521E-1
 1.060000000000000E+10   2.784576110599348E-1   -9.039370880304202E-1
 1.061000000000000E+10   1.969372972475281E-1   -9.243494562486393E-1
 1.062000000000000E+10   1.141458836367914E-1   -9.383621179178728E-1
 1.063000000000000E+10   3.106928207714851E-2   -9.456756389730407E-1
 1.064000000000000E+10  -5.160333218646599E-2   -9.457412756976421E-1
 1.065000000000000E+10  -1.330163430763570E-1   -9.379629505952796E-1
 1.066000000000000E+10  -2.133511839664995E-1   -9.225055280517599E-1
 1.067000000000000E+10  -2.923128757775674E-1   -8.987791596261270E-1
 1.068000000000000E+10  -3.703408244048430E-1   -8.666843385311921E-1
 1.069000000000000E+10  -4.473368212064759E-1   -8.261708938843945E-1
 1.070000000000000E+10  -5.228516625511650E-1   -7.771678903191129E-1
 1.071000000000000E+10  -5.959989122275854E-1   -7.195949263501037E-1
 1.072000000000000E+10  -6.651157095299389E-1   -6.533250854942371E-1
 1.073000000000000E+10  -7.261259299157191E-1   -5.770720376417346E-1
 1.074000000000000E+10  -7.701116793148830E-1   -5.031262460438937E-1
 1.075000000000000E+10  -8.207882489774065E-1   -4.299423097431218E-1
 1.076000000000000E+10  -8.627627156061326E-1   -3.443660040443264E-1
 1.077000000000000E+10  -8.935659266474792E-1   -2.531147679304626E-1
 1.078000000000000E+10  -9.135759012121970E-1   -1.569004805269792E-1
 1.079000000000000E+10  -9.225618250846043E-1   -5.669541655821596E-2
 1.080000000000000E+10  -9.205332285517155E-1    4.692921415599323E-2
 1.081000000000000E+10  -9.069384573691048E-1    1.526834410437557E-1
 1.082000000000000E+10  -8.816875438655556E-1    2.591880747680186E-1
 1.083000000000000E+10  -8.441741008309138E-1    3.636170432891542E-1
 1.084000000000000E+10  -7.948262423394000E-1    4.639511244819192E-1
 1.085000000000000E+10  -7.337823116700293E-1    5.577671790972224E-1
 1.086000000000000E+10  -6.616254813144509E-1    6.428164627642906E-1
 1.087000000000000E+10  -5.792333810707575E-1    7.181493993780710E-1
 1.088000000000000E+10  -4.868359867177775E-1    7.828124497533275E-1
 1.089000000000000E+10  -3.856417337739669E-1    8.359763461076263E-1
 1.090000000000000E+10  -2.767800753329002E-1    8.770662129433330E-1
 1.091000000000000E+10  -1.619082425162419E-1    9.053509868608239E-1
 1.092000000000000E+10  -4.273349979132685E-2    9.198461544722668E-1
 1.093000000000000E+10   7.801247137005228E-2    9.196580198223786E-1
 1.094000000000000E+10   1.972982851158387E-1    9.048740061041313E-1
 1.095000000000000E+10   3.123763574531145E-1    8.752811421374915E-1
 1.096000000000000E+10   4.213501190019026E-1    8.316608157313998E-1
 1.097000000000000E+10   5.221481791677550E-1    7.749904586403991E-1
 1.098000000000000E+10   6.140954107249058E-1    7.063464837156358E-1
 1.099000000000000E+10   6.966515372653149E-1    6.269256433857407E-1
 1.100000000000000E+10   7.689136727016167E-1    5.377072135244285E-1
 1.101000000000000E+10   8.304707307981597E-1    4.401525656939246E-1
 1.102000000000000E+10   8.802254302799650E-1    3.354207086086938E-1
 1.103000000000000E+10   9.175349598589833E-1    2.258753976513014E-1
 1.104000000000000E+10   9.413470425192387E-1    1.135788653826847E-1
 1.105000000000000E+10   9.512848622561454E-1    1.042584668955455E-3
 1.106000000000000E+10   9.478632038405564E-1   -1.097520647455405E-1
 1.107000000000000E+10   9.312889786979220E-1   -2.171723022680822E-1
 1.108000000000000E+10   9.024626444976750E-1   -3.204861141880376E-1
 1.109000000000000E+10   8.622316484497304E-1   -4.188758832695984E-1
 1.110000000000000E+10   8.116341119045135E-1   -5.117004952313512E-1
 1.111000000000000E+10   7.513952642734403E-1   -5.986797243041569E-1
 1.112000000000000E+10   6.819476576097695E-1   -6.788449997221127E-1
 1.113000000000000E+10   6.042630990943230E-1   -7.512261921941852E-1
 1.114000000000000E+10   5.190578074012675E-1   -8.146696596456151E-1
 1.115000000000000E+10   4.280228778841960E-1   -8.677439859070749E-1
 1.116000000000000E+10   3.319990541047713E-1   -9.098194332552568E-1
 1.117000000000000E+10   2.324808660311408E-1   -9.401912285318136E-1
 1.118000000000000E+10   1.311379567229590E-1   -9.593892575610118E-1
 1.119000000000000E+10   2.875864683010946E-2   -9.672150043066614E-1
 1.120000000000000E+10  -7.424848807326311E-2   -9.642375760401209E-1
 1.121000000000000E+10  -1.769735117644671E-1   -9.504050527437287E-1
 1.122000000000000E+10  -2.780154020051100E-1   -9.261291810197547E-1
 1.123000000000000E+10  -3.765160628305068E-1   -8.910444739832285E-1
 1.124000000000000E+10  -4.709427405294238E-1   -8.452392906167340E-1
 1.125000000000000E+10  -5.596400937023643E-1   -7.894277965314110E-1
 1.126000000000000E+10  -6.411116997884748E-1   -7.238123268364285E-1
 1.127000000000000E+10  -7.142969973302916E-1   -6.495933040055395E-1
 1.128000000000000E+10  -7.786078121593326E-1   -5.676243465547511E-1
 1.129000000000000E+10  -8.332277989527630E-1   -4.791317572952896E-1
 1.130000000000000E+10  -8.780795294549059E-1   -3.846172903042637E-1
 1.131000000000000E+10  -9.125513382349777E-1   -2.855021312551635E-1
 1.132000000000000E+10  -9.367300808987252E-1   -1.826726087559691E-1
 1.133000000000000E+10  -9.498775875485450E-1   -7.737616111825053E-2
 1.134000000000000E+10  -9.513465745835056E-1    2.902711662432116E-2
 1.135000000000000E+10  -9.409213931724020E-1    1.351372813465934E-1
 1.136000000000000E+10  -9.182138793143588E-1    2.390977427327049E-1
 1.137000000000000E+10  -8.837680779611726E-1    3.392472780164268E-1
 1.138000000000000E+10  -8.380665786823724E-1    4.343406421862188E-1
 1.139000000000000E+10  -7.824018254954884E-1    5.232691981375190E-1
 1.140000000000000E+10  -7.176446757143136E-1    6.052437325751561E-1
 1.141000000000000E+10  -6.448622112857435E-1    6.796147843063758E-1
 1.142000000000000E+10  -5.647920051207087E-1    7.457494177951326E-1
 1.143000000000000E+10  -4.783924027811359E-1    8.029674133428976E-1
 1.144000000000000E+10  -3.863143106601606E-1    8.506245333652738E-1
 1.145000000000000E+10  -2.898003256951762E-1    8.875373988742107E-1
 1.146000000000000E+10  -1.904286391235430E-1    9.131722640757304E-1
 1.147000000000000E+10  -8.931941444444945E-2    9.273945177831893E-1
 1.148000000000000E+10   1.212626996359601E-2    9.304040248141580E-1
 1.149000000000000E+10   1.126570483011927E-1    9.223746554387238E-1
 1.150000000000000E+10   2.110409510398025E-1    9.041418919670259E-1
 1.151000000000000E+10   3.064144552882845E-1    8.762817034692466E-1
 1.152000000000000E+10   3.978194483299438E-1    8.390590680517421E-1
 1.153000000000000E+10   4.846491536978558E-1    7.930268899245301E-1
 1.154000000000000E+10   5.660159530568203E-1    7.387123825280961E-1
 1.155000000000000E+10   6.407276040959596E-1    6.764610569681131E-1
 1.156000000000000E+10   7.084751920298731E-1    6.066236422637635E-1
 1.157000000000000E+10   7.678209813936805E-1    5.302001744863731E-1
 1.158000000000000E+10   8.184896345311793E-1    4.487109350885372E-1
 1.159000000000000E+10   8.600564964506638E-1    3.626773938508737E-1
 1.160000000000000E+10   8.928101630903760E-1    2.739396757406800E-1
 1.161000000000000E+10   9.164158215692373E-1    1.834145055794214E-1
 1.162000000000000E+10   9.313831329846388E-1    9.183466864831361E-2
 1.163000000000000E+10   9.376159450312515E-1   -1.046737698416502E-4
 1.164000000000000E+10   9.349028354306939E-1   -9.173088559528680E-2
 1.165000000000000E+10   9.230609336373231E-1   -1.823691021779804E-1
 1.166000000000000E+10   9.017922290506813E-1   -2.714523665269887E-1
 1.167000000000000E+10   8.711717889405201E-1   -3.578928441713630E-1
 1.168000000000000E+10   8.316681496834093E-1   -4.411639375630745E-1
 1.169000000000000E+10   7.841183151961575E-1   -5.203680818311982E-1
 1.170000000000000E+10   7.292895184320672E-1   -5.945634204031001E-1
 1.171000000000000E+10   6.679674729270330E-1   -6.636642375632161E-1
 1.172000000000000E+10   6.008657344684842E-1   -7.263420922759152E-1
 1.173000000000000E+10   5.288562738651319E-1   -7.823152989903205E-1
 1.174000000000000E+10   4.522812195536132E-1   -8.310619505714987E-1
 1.175000000000000E+10   3.712469987588352E-1   -8.718993014066150E-1
 1.176000000000000E+10   2.862582298234828E-1   -9.043821689985764E-1
 1.177000000000000E+10   1.976072791268661E-1   -9.282009564828138E-1
 1.178000000000000E+10   1.058437027159184E-1   -9.429735860366341E-1
 1.179000000000000E+10   1.163803998652436E-2   -9.481193331989882E-1
 1.180000000000000E+10  -8.404527122594729E-2   -9.440702097305373E-1
 1.181000000000000E+10  -1.800768647070182E-1   -9.305036151542837E-1
 1.182000000000000E+10  -2.747304282444426E-1   -9.076938091132206E-1
 1.183000000000000E+10  -3.677338972154375E-1   -8.758598790559242E-1
 1.184000000000000E+10  -4.575130468994454E-1   -8.342090086814966E-1
 1.185000000000000E+10  -5.428241887278256E-1   -7.830143881972357E-1
 1.186000000000000E+10  -6.231554444431515E-1   -7.220554638629237E-1
 1.187000000000000E+10  -6.969625663822698E-1   -6.514534217304393E-1
 1.188000000000000E+10  -7.634007073112584E-1   -5.714666233789820E-1
 1.189000000000000E+10  -8.211875432567242E-1   -4.829366338114051E-1
 1.190000000000000E+10  -8.695727087932774E-1   -3.872668190745876E-1
 1.191000000000000E+10  -9.080886249701495E-1   -2.854541760947841E-1
 1.192000000000000E+10  -9.354321792353344E-1   -1.786017544545434E-1
 1.193000000000000E+10  -9.504987134294588E-1   -6.855999616414095E-2
 1.194000000000000E+10  -9.530508777428939E-1    4.321298985878011E-2
 1.195000000000000E+10  -9.416750700214153E-1    1.551871423928242E-1
 1.196000000000000E+10  -9.160245629744723E-1    2.663878924675637E-1
 1.197000000000000E+10  -8.749178990194960E-1    3.748982170502085E-1
 1.198000000000000E+10  -8.198314502264440E-1    4.792685892486016E-1
 1.199000000000000E+10  -7.501438423168401E-1    5.770449000670600E-1
 1.200000000000000E+10  -6.672706730706934E-1    6.668367277984181E-1
 1.201000000000000E+10  -5.733443473383378E-1    7.462580928682323E-1
 1.202000000000000E+10  -4.695518015937538E-1    8.135238772710086E-1
 1.203000000000000E+10  -3.586678876015448E-1    8.670580751526322E-1
 1.204000000000000E+10  -2.428383951639839E-1    9.055775645340783E-1
 1.205000000000000E+10  -1.237477249154469E-1    9.279889853296576E-1
 1.206000000000000E+10  -2.923524985186572E-3    9.333384836562594E-1
 1.207000000000000E+10   1.183682054952122E-1    9.212301635616570E-1
 1.208000000000000E+10   2.380348774303834E-1    8.905101195512772E-1
 1.209000000000000E+10   3.539857980011699E-1    8.399959127574181E-1
 1.210000000000000E+10   4.625768272341282E-1    7.677042610611440E-1
 1.211000000000000E+10   5.555100944131228E-1    6.683589724526374E-1
 1.212000000000000E+10   6.069929086796311E-1    5.362720273547028E-1
 1.213000000000000E+10   5.482664863938813E-1    4.228614909608673E-1
 1.214000000000000E+10   5.068314537778272E-1    5.018233226692116E-1
 1.215000000000000E+10   6.440862103974441E-1    5.263446070857027E-1
 1.216000000000000E+10   7.595906815329710E-1    4.487267602886924E-1
 1.217000000000000E+10   8.325738763278422E-1    3.452846603580237E-1
 1.218000000000000E+10   8.774210857542676E-1    2.361461225609595E-1
 1.219000000000000E+10   9.024215399862108E-1    1.260965259385429E-1
 1.220000000000000E+10   9.117674742151510E-1    1.715498766231074E-2
 1.221000000000000E+10   9.079807774863463E-1   -8.941755652370520E-2
 1.222000000000000E+10   8.930198279595901E-1   -1.920979443218830E-1
 1.223000000000000E+10   8.680114180771862E-1   -2.896885438648917E-1
 1.224000000000000E+10   8.338777559851499E-1   -3.810497554203012E-1
 1.225000000000000E+10   7.917240076782097E-1   -4.655835428161934E-1
 1.226000000000000E+10   7.420425895086947E-1   -5.427383187905346E-1
 1.227000000000000E+10   6.847380488708107E-1   -6.131761704071146E-1
 1.228000000000000E+10   6.206749568602813E-1   -6.762529331857137E-1
 1.229000000000000E+10   5.505445567732659E-1   -7.323020473565981E-1
 1.230000000000000E+10   4.750291990769978E-1   -7.815705518004039E-1
 1.231000000000000E+10   3.952049071986984E-1   -8.238591636666971E-1
 1.232000000000000E+10   3.126717584691895E-1   -8.589235847410194E-1
 1.233000000000000E+10   2.283679063752234E-1   -8.863238920154703E-1
 1.234000000000000E+10   1.440552769618824E-1   -9.060695233738891E-1
 1.235000000000000E+10   5.997520314769275E-2   -9.180469685886858E-1
 1.236000000000000E+10  -2.260504523961007E-2   -9.215859268133259E-1
 1.237000000000000E+10  -1.040226805593304E-1   -9.174200847143801E-1
 1.238000000000000E+10  -1.840535527804362E-1   -9.046731655557845E-1
 1.239000000000000E+10  -2.632103439024596E-1   -8.842760832274388E-1
 1.240000000000000E+10  -3.408905911187711E-1   -8.560985163250394E-1
 1.241000000000000E+10  -4.172139418254270E-1   -8.207215074506395E-1
 1.242000000000000E+10  -4.913105191193338E-1   -7.785712238589724E-1
 1.243000000000000E+10  -5.624593070069817E-1   -7.304277790456052E-1
 1.244000000000000E+10  -6.289124873925476E-1   -6.769477762614095E-1
 1.245000000000000E+10  -6.901225225662100E-1   -6.185336004746260E-1
 1.246000000000000E+10  -7.454096325637248E-1   -5.553500513760785E-1
 1.247000000000000E+10  -7.937373978223593E-1   -4.878044112244059E-1
 1.248000000000000E+10  -8.352533600340469E-1   -4.159049663473218E-1
 1.249000000000000E+10  -8.696947156786385E-1   -3.391206884442203E-1
 1.250000000000000E+10  -8.968884457446015E-1   -2.579370461570213E-1
