#  HZ   S   RI   R     50.00 
! Rohde & Schwarz Vector Network Analyzer 
! Rohde-Schwarz,ZNA43-4Port,1332450044101932,2.92
! Created: UTC 6/1/2026, 11:33:43 AM
! freq[Hz]                re:S11                  im:S11
 8.000000000000000E9    -7.977220819625738E-4    2.349432033721457E-1
 8.010000000000000E9    -8.164682236285083E-3    2.497713702662663E-1
 8.020000000000000E9    -1.257353847102282E-2    2.662092154921183E-1
 8.030000000000000E9    -1.332871546667042E-2    2.833868348924579E-1
 8.040000000000000E9    -1.005913297861839E-2    3.005915053938692E-1
 8.050000000000000E9    -2.481842291145977E-3    3.173270504320070E-1
 8.060000000000000E9     9.322747431909428E-3    3.329944745578564E-1
 8.070000000000000E9     2.523103290091901E-2    3.474622040631791E-1
 8.080000000000000E9     4.467207343054780E-2    3.603894963803127E-1
 8.090000000000000E9     6.707250287270194E-2    3.714560404645671E-1
 8.100000000000000E9     9.174730790677568E-2    3.803841766197922E-1
 8.110000000000000E9     1.178986511047070E-1    3.867631270044937E-1
 8.120000000000000E9     1.448688835369124E-1    3.901267403379525E-1
 8.130000000000000E9     1.722107242266079E-1    3.899980866085429E-1
 8.140000000000000E9     1.995102130062081E-1    3.860689712482551E-1
 8.150000000000000E9     2.266256425105221E-1    3.780330953592010E-1
 8.160000000000000E9     2.532532772680091E-1    3.660089776288213E-1
 8.170000000000000E9     2.793197801230871E-1    3.500603405094334E-1
 8.180000000000000E9     3.045749558353796E-1    3.305411275076645E-1
 8.190000000000000E9     3.287717493799641E-1    3.080774705277591E-1
 8.200000000000000E9     3.511499422438551E-1    2.831107546383062E-1
 8.210000000000000E9     3.714074915693741E-1    2.561616311221699E-1
 8.220000000000000E9     3.887745771971031E-1    2.275253462834296E-1
 8.230000000000000E9     4.027494683944874E-1    1.975126735164462E-1
 8.240000000000000E9     4.127985784319077E-1    1.661492785761730E-1
 8.250000000000000E9     4.188574701169844E-1    1.335740617644422E-1
 8.260000000000000E9     4.206056816225698E-1    9.979326868583907E-2
 8.270000000000000E9     4.181812616665961E-1    6.498590277977914E-2
 8.280000000000000E9     4.118553755190973E-1    2.959023831186872E-2
 8.290000000000000E9     4.018263981932695E-1   -5.993437695679673E-3
 8.300000000000000E9     3.885323144614947E-1   -4.080759881909107E-2
 8.310000000000000E9     3.721292507068211E-1   -7.393955599927088E-2
 8.320000000000000E9     3.527783614528769E-1   -1.046043091363847E-1
 8.330000000000000E9     3.306298849779289E-1   -1.321103543261085E-1
 8.340000000000000E9     3.055136963818069E-1   -1.558480371085762E-1
 8.350000000000000E9     2.775462286227107E-1   -1.753962878285467E-1
 8.360000000000000E9     2.467628859780724E-1   -1.906268113144998E-1
 8.370000000000000E9     2.135449554072529E-1   -2.015604541415677E-1
 8.380000000000000E9     1.784717891470568E-1   -2.083729132487677E-1
 8.390000000000000E9     1.425021815027697E-1   -2.110586583850654E-1
 8.400000000000000E9     1.064167777947653E-1   -2.098724231762898E-1
 8.410000000000000E9     7.132559996390146E-2   -2.049158177972418E-1
 8.420000000000000E9     3.835235472066554E-2   -1.960296122372250E-1
 8.430000000000000E9     8.190594007431952E-3   -1.831443509994528E-1
 8.440000000000000E9    -1.838993116810542E-2   -1.663741640337036E-1
 8.450000000000000E9    -4.099866097924659E-2   -1.457366817591529E-1
 8.460000000000000E9    -5.948973951081785E-2   -1.214411722657086E-1
 8.470000000000000E9    -7.407176169912022E-2   -9.420498425198420E-2
 8.480000000000000E9    -8.475239540240449E-2   -6.456889473587148E-2
 8.490000000000000E9    -9.147634663594059E-2   -3.374003552621996E-2
 8.500000000000000E9    -9.439190613121408E-2   -2.806999947753329E-3
 8.510000000000000E9    -9.341217837568977E-2    2.732612781008780E-2
 8.520000000000000E9    -8.858505310455451E-2    5.546801119940493E-2
 8.530000000000000E9    -7.958760203628155E-2    8.098112261327620E-2
 8.540000000000000E9    -6.642162371281191E-2    1.033182437083589E-1
 8.550000000000000E9    -4.932999345735761E-2    1.222489912517059E-1
 8.560000000000000E9    -2.849804904377883E-2    1.377403601512854E-1
 8.570000000000000E9    -4.509166619153866E-3    1.498184543301785E-1
 8.580000000000000E9     2.175963282215997E-2    1.585048396904920E-1
 8.590000000000000E9     4.934101263779189E-2    1.638728573785201E-1
 8.600000000000000E9     7.724662538289695E-2    1.657853734231677E-1
 8.610000000000000E9     1.045079879396997E-1    1.639879707230769E-1
 8.620000000000000E9     1.303794193080527E-1    1.582392938324008E-1
 8.630000000000000E9     1.542694926703927E-1    1.483715552757146E-1
 8.640000000000000E9     1.757964717353450E-1    1.341642405004041E-1
 8.650000000000000E9     1.948017705079450E-1    1.157874792625780E-1
 8.660000000000000E9     2.112098684581308E-1    9.349661633802919E-2
 8.670000000000000E9     2.250057798319088E-1    6.775643837576129E-2
 8.680000000000000E9     2.359951748081064E-1    3.932435743245853E-2
 8.690000000000000E9     2.439714033317349E-1    9.146064955523704E-3
 8.700000000000000E9     2.485412225312357E-1   -2.211263052503836E-2
 8.710000000000000E9     2.492264578265238E-1   -5.359396395759584E-2
 8.720000000000000E9     2.457770427268147E-1   -8.476492828213832E-2
 8.730000000000000E9     2.375481138669006E-1   -1.155357762239746E-1
 8.740000000000000E9     2.241916831297925E-1   -1.464761854235860E-1
 8.750000000000000E9     2.033289895457110E-1   -1.792060991564258E-1
 8.760000000000000E9     1.638120155126629E-1   -2.060023980688048E-1
 8.770000000000000E9     1.356717735127710E-1   -2.101057093619708E-1
 8.780000000000000E9     1.128600925353287E-1   -2.269179902343543E-1
 8.790000000000000E9     8.349725692570641E-2   -2.444290945966848E-1
 8.800000000000000E9     5.060614294049443E-2   -2.586333349592980E-1
 8.810000000000000E9     1.584656546118475E-2   -2.686178775471403E-1
 8.820000000000000E9    -1.981612338741633E-2   -2.736476202905949E-1
 8.830000000000000E9    -5.587007049956101E-2   -2.733877430674161E-1
 8.840000000000000E9    -9.192185273668278E-2   -2.676739821724720E-1
 8.850000000000000E9    -1.276226807470486E-1   -2.565959122234788E-1
 8.860000000000000E9    -1.627750115128619E-1   -2.403630610986633E-1
 8.870000000000000E9    -1.968030456551314E-1   -2.194441945658556E-1
 8.880000000000000E9    -2.291034016774824E-1   -1.944248237029198E-1
 8.890000000000000E9    -2.589211480778178E-1   -1.660976381551176E-1
 8.900000000000000E9    -2.855111345000766E-1   -1.349098230364469E-1
 8.910000000000000E9    -3.081100349786749E-1   -1.016661284942039E-1
 8.920000000000000E9    -3.261385304982063E-1   -6.642354793720837E-2
 8.930000000000000E9    -3.390881331990416E-1   -2.955862195144606E-2
 8.940000000000000E9    -3.469532996608009E-1    8.709997019309908E-3
 8.950000000000000E9    -3.496831509633329E-1    4.793530592071198E-2
 8.960000000000000E9    -3.474607182236731E-1    8.799980816917552E-2
 8.970000000000000E9    -3.407689579814132E-1    1.282960701864714E-1
 8.980000000000000E9    -3.299738394623220E-1    1.680366078939740E-1
 8.990000000000000E9    -3.155062817109004E-1    2.065076593057355E-1
 9.000000000000000E9    -2.975061206317480E-1    2.429534144101159E-1
 9.010000000000000E9    -2.766434212567405E-1    2.764560611581455E-1
 9.020000000000000E9    -2.527979104639703E-1    3.064481575038234E-1
 9.030000000000000E9    -2.259087448961652E-1    3.326026787965077E-1
 9.040000000000000E9    -1.962281073929553E-1    3.546747950408686E-1
 9.050000000000000E9    -1.639107141974981E-1    3.727058713916319E-1
 9.060000000000000E9    -1.292557675914263E-1    3.867063345617768E-1
 9.070000000000000E9    -9.266583102235602E-2    3.970176256492516E-1
 9.080000000000000E9    -5.486052423650862E-2    4.037312391016776E-1
 9.090000000000000E9    -1.644615338272445E-2    4.068298157309716E-1
 9.100000000000000E9     2.158405526701599E-2    4.063631345245578E-1
 9.110000000000000E9     5.847245901946613E-2    4.022526768723289E-1
 9.120000000000000E9     9.369866841002343E-2    3.942204760752313E-1
 9.130000000000000E9     1.265378074744671E-1    3.822787486235730E-1
 9.140000000000000E9     1.569354820902624E-1    3.663691903388066E-1
 9.150000000000000E9     1.845802325184595E-1    3.465583966529175E-1
 9.160000000000000E9     2.094409785361442E-1    3.229567833629314E-1
 9.170000000000000E9     2.314598055358271E-1    2.960185559347448E-1
 9.180000000000000E9     2.505775225246319E-1    2.662968261240666E-1
 9.190000000000000E9     2.664051567822973E-1    2.343915640745563E-1
 9.200000000000000E9     2.785839631611500E-1    2.008805507633664E-1
 9.210000000000000E9     2.867262119427703E-1    1.666740503961402E-1
 9.220000000000000E9     2.904223195967887E-1    1.323260281619916E-1
 9.230000000000000E9     2.894385656941756E-1    9.818347871099684E-2
 9.240000000000000E9     2.834004718804750E-1    6.496153107134749E-2
 9.250000000000000E9     2.723072262451519E-1    3.309923326743879E-2
 9.260000000000000E9     2.563337980726228E-1    3.021694467325449E-3
 9.270000000000000E9     2.357779046092279E-1   -2.485633597482382E-2
 9.280000000000000E9     2.111960878964371E-1   -5.001265793745213E-2
 9.290000000000000E9     1.830071589734933E-1   -7.184064533978583E-2
 9.300000000000000E9     1.519468567473929E-1   -8.968216861339616E-2
 9.310000000000000E9     1.185905794076038E-1   -1.028508160136222E-1
 9.320000000000000E9     8.363862483320181E-2   -1.108224755476796E-1
 9.330000000000000E9     4.787804649176434E-2   -1.132671076257586E-1
 9.340000000000000E9     1.204177156394892E-2   -1.098339369120781E-1
 9.350000000000000E9    -2.325271590650543E-2   -1.004528571301703E-1
 9.360000000000000E9    -5.716077619520232E-2   -8.532671876960686E-2
 9.370000000000000E9    -8.883992907937584E-2   -6.480438940469993E-2
 9.380000000000000E9    -1.177069380253932E-1   -3.953652231571654E-2
 9.390000000000000E9    -1.430294567232552E-1   -9.945622870875293E-3
 9.400000000000000E9    -1.640085875873539E-1    2.322677093379496E-2
 9.410000000000000E9    -1.802003683138830E-1    5.926107373238657E-2
 9.420000000000000E9    -1.909260398010606E-1    9.729833620489951E-2
 9.430000000000000E9    -1.962288764460232E-1    1.365318769638557E-1
 9.440000000000000E9    -1.958642847420594E-1    1.762137204686822E-1
 9.450000000000000E9    -1.900083569277017E-1    2.155971120799020E-1
 9.460000000000000E9    -1.788934178019281E-1    2.541394677381266E-1
 9.470000000000000E9    -1.627400238901470E-1    2.908406845086236E-1
 9.480000000000000E9    -1.420047758246044E-1    3.252769474532743E-1
 9.490000000000000E9    -1.170458138698173E-1    3.569136957480362E-1
 9.500000000000000E9    -8.794681768078240E-2    3.850772036860403E-1
 9.510000000000000E9    -5.596872066719848E-2    4.096879139382038E-1
 9.520000000000000E9    -2.133302589862332E-2    4.303036198149330E-1
 9.530000000000000E9     1.558986983457274E-2    4.466894875208560E-1
 9.540000000000000E9     5.405535902595815E-2    4.589821061944571E-1
 9.550000000000000E9     9.346590454705619E-2    4.671681038772093E-1
 9.560000000000000E9     1.332461666424497E-1    4.713710193075996E-1
 9.570000000000000E9     1.729710481021529E-1    4.715693537941081E-1
 9.580000000000000E9     2.122655207465598E-1    4.678447353967035E-1
 9.590000000000000E9     2.506664919576002E-1    4.601501630950989E-1
 9.600000000000000E9     2.879799346140904E-1    4.484802757633311E-1
 9.610000000000000E9     3.238694461580736E-1    4.329884542499593E-1
 9.620000000000000E9     3.581438536385235E-1    4.138030405505653E-1
 9.630000000000000E9     3.904083009755874E-1    3.911348559705277E-1
 9.640000000000000E9     4.206156250491938E-1    3.656081801957856E-1
 9.650000000000000E9     4.483852198365526E-1    3.375144683241862E-1
 9.660000000000000E9     4.736189526459072E-1    3.072295258637295E-1
 9.670000000000000E9     4.961196828677082E-1    2.752295488199317E-1
 9.680000000000000E9     5.155835247790460E-1    2.415907567658050E-1
 9.690000000000000E9     5.318247265894240E-1    2.066303472501899E-1
 9.700000000000000E9     5.445775792208658E-1    1.701962754080762E-1
 9.710000000000000E9     5.537107763142128E-1    1.325949214901471E-1
 9.720000000000000E9     5.590907427066413E-1    9.393698127620249E-2
 9.730000000000000E9     5.606930331441280E-1    5.452657833893629E-2
 9.740000000000000E9     5.585927077303008E-1    1.475073806860799E-2
 9.750000000000000E9     5.528925089967018E-1   -2.509568913495988E-2
 9.760000000000000E9     5.436611776811018E-1   -6.444451496807813E-2
 9.770000000000000E9     5.310854928795996E-1   -1.027606420630321E-1
 9.780000000000000E9     5.151664565851221E-1   -1.396906077260241E-1
 9.790000000000000E9     4.957028576106388E-1   -1.747488578139724E-1
 9.800000000000000E9     4.726657890622130E-1   -2.074475310897356E-1
 9.810000000000000E9     4.459282269830109E-1   -2.377094778410621E-1
 9.820000000000000E9     4.154074897638992E-1   -2.651458886428783E-1
 9.830000000000000E9     3.812913037302954E-1   -2.896262845489639E-1
 9.840000000000000E9     3.439891213937193E-1   -3.105364589326311E-1
 9.850000000000000E9     3.039062131452539E-1   -3.277007204091759E-1
 9.860000000000000E9     2.616818531802637E-1   -3.408954194258871E-1
 9.870000000000000E9     2.182569759549228E-1   -3.495243994907826E-1
 9.880000000000000E9     1.742636091580983E-1   -3.531080856737261E-1
 9.890000000000000E9     1.304202276953818E-1   -3.512235230885715E-1
 9.900000000000000E9     8.723393006884021E-2   -3.435137490443244E-1
 9.910000000000000E9     4.533426951805478E-2   -3.297076635836305E-1
 9.920000000000000E9     5.183607459447187E-3   -3.096557129180887E-1
 9.930000000000000E9    -3.252533200591237E-2   -2.836394833586957E-1
 9.940000000000000E9    -6.704895887929564E-2   -2.520881764539896E-1
 9.950000000000000E9    -9.778427992864938E-2   -2.156661774449198E-1
 9.960000000000000E9    -1.239433834257189E-1   -1.752106928095534E-1
 9.970000000000000E9    -1.443743483124833E-1   -1.319182601123301E-1
 9.980000000000000E9    -1.584682987031424E-1   -8.676931562176798E-2
 9.990000000000000E9    -1.656050378296263E-1   -4.063995477466028E-2
 1.000000000000000E+10  -1.651818708821752E-1    5.733435041393690E-3
 1.001000000000000E+10  -1.573809187752350E-1    5.124679450597969E-2
 1.002000000000000E+10  -1.420424586307545E-1    9.534041332916293E-2
 1.003000000000000E+10  -1.198668233875791E-1    1.373752647928731E-1
 1.004000000000000E+10  -9.168651030273924E-2    1.764544630908095E-1
 1.005000000000000E+10  -5.853559063985418E-2    2.116528967068032E-1
 1.006000000000000E+10  -2.171470714381130E-2    2.423270199047969E-1
 1.007000000000000E+10   1.812578059945769E-2    2.675167141511330E-1
 1.008000000000000E+10   5.985779937451899E-2    2.867278865050351E-1
 1.009000000000000E+10   1.026828026626248E-1    2.995057145879982E-1
 1.010000000000000E+10   1.461685037729425E-1    3.054672170357291E-1
 1.011000000000000E+10   1.900343706990883E-1    3.047033953846977E-1
 1.012000000000000E+10   2.338049167901452E-1    2.973192612042679E-1
 1.013000000000000E+10   2.770385400829342E-1    2.840961569438325E-1
 1.014000000000000E+10   3.189006871781430E-1    2.657719055910132E-1
 1.015000000000000E+10   3.590579354433970E-1    2.432114782000320E-1
 1.016000000000000E+10   3.964711782303914E-1    2.171015980403300E-1
 1.017000000000000E+10   4.305422345582263E-1    1.881544425478034E-1
 1.018000000000000E+10   4.605531413538504E-1    1.567699773739075E-1
 1.019000000000000E+10   4.860365038270216E-1    1.231927715595547E-1
 1.020000000000000E+10   5.065245161880670E-1    8.758778440808544E-2
 1.021000000000000E+10   5.222108257187140E-1    4.964524869475628E-2
 1.022000000000000E+10   5.330973329879244E-1    9.456855099400609E-3
 1.023000000000000E+10   5.395255787122470E-1   -3.288899222236463E-2
 1.024000000000000E+10   5.416570251874221E-1   -7.692695419112162E-2
 1.025000000000000E+10   5.402408006965957E-1   -1.219132136071956E-1
 1.026000000000000E+10   5.351979716680123E-1   -1.669734565708325E-1
 1.027000000000000E+10   5.269810885643573E-1   -2.110953442594973E-1
 1.028000000000000E+10   5.154892403599319E-1   -2.536163524378348E-1
 1.029000000000000E+10   5.008677242603409E-1   -2.935496189001919E-1
 1.030000000000000E+10   4.825048057085665E-1   -3.309293993101518E-1
 1.031000000000000E+10   4.601561702804149E-1   -3.657141532570850E-1
 1.032000000000000E+10   4.336732989138624E-1   -3.979247009720446E-1
 1.033000000000000E+10   4.028308920629630E-1   -4.277070154553584E-1
 1.034000000000000E+10   3.683443944273335E-1   -4.552071169720285E-1
 1.035000000000000E+10   3.303076328354676E-1   -4.803495692072934E-1
 1.036000000000000E+10   2.893865078022263E-1   -5.031896003851711E-1
 1.037000000000000E+10   2.464282918546761E-1   -5.231209356927077E-1
 1.038000000000000E+10   2.022475898835858E-1   -5.397460088378576E-1
 1.039000000000000E+10   1.574722152440477E-1   -5.523330794359426E-1
 1.040000000000000E+10   1.123954098533908E-1   -5.603498883679020E-1
 1.041000000000000E+10   6.702429174882342E-2   -5.633925145157329E-1
 1.042000000000000E+10   2.147624702745431E-2   -5.610070533577906E-1
 1.043000000000000E+10  -2.447486074684808E-2   -5.530768000710140E-1
 1.044000000000000E+10  -7.099667015017513E-2   -5.397430994254403E-1
 1.045000000000000E+10  -1.173898288562850E-1   -5.211458080183240E-1
 1.046000000000000E+10  -1.634484337422063E-1   -4.978073861871073E-1
 1.047000000000000E+10  -2.082221856678813E-1   -4.700277633984426E-1
 1.048000000000000E+10  -2.505101435729561E-1   -4.381631400616929E-1
 1.049000000000000E+10  -2.894987694046129E-1   -4.025989129179782E-1
 1.050000000000000E+10  -3.238750224839947E-1   -3.634238555393923E-1
 1.051000000000000E+10  -3.531221013959128E-1   -3.206781592852675E-1
 1.052000000000000E+10  -3.765021327587150E-1   -2.744672512359126E-1
 1.053000000000000E+10  -3.937616099534260E-1   -2.246673993433766E-1
 1.054000000000000E+10  -4.046770109923528E-1   -1.716184753993276E-1
 1.055000000000000E+10  -4.093727565431210E-1   -1.156168879700029E-1
 1.056000000000000E+10  -4.076496515382675E-1   -5.790667227746025E-2
 1.057000000000000E+10  -3.999208146911591E-1    4.059738675909332E-4
 1.058000000000000E+10  -3.859377669434634E-1    5.790860231811314E-2
 1.059000000000000E+10  -3.654859491553393E-1    1.130083855712455E-1
 1.060000000000000E+10  -3.388212514323481E-1    1.643000761488732E-1
 1.061000000000000E+10  -3.057102351731583E-1    2.108358631184268E-1
 1.062000000000000E+10  -2.663244251542768E-1    2.516392547598898E-1
 1.063000000000000E+10  -2.208742363683167E-1    2.863615602433138E-1
 1.064000000000000E+10  -1.697559511136991E-1    3.146260327191710E-1
 1.065000000000000E+10  -1.141595063605101E-1    3.363475709169780E-1
 1.066000000000000E+10  -5.524429916854536E-2    3.513033423776787E-1
 1.067000000000000E+10   5.652830165559171E-3    3.595523289412801E-1
 1.068000000000000E+10   6.686243096619543E-2    3.605612775185673E-1
 1.069000000000000E+10   1.267034157856469E-1    3.543179405643653E-1
 1.070000000000000E+10   1.837547783043878E-1    3.407884457866617E-1
 1.071000000000000E+10   2.369733284271667E-1    3.198479328083368E-1
 1.072000000000000E+10   2.857271834409448E-1    2.916214824634244E-1
 1.073000000000000E+10   3.296734413248688E-1    2.563743695942873E-1
 1.074000000000000E+10   3.686734695631986E-1    2.148522827175055E-1
 1.075000000000000E+10   4.024603574839400E-1    1.677698900296544E-1
 1.076000000000000E+10   4.308913955611989E-1    1.163453093578730E-1
 1.077000000000000E+10   4.536424884676608E-1    6.172231826279143E-2
 1.078000000000000E+10   4.704393461228200E-1    5.460158951408317E-3
 1.079000000000000E+10   4.806032125523695E-1   -5.128021793655663E-2
 1.080000000000000E+10   4.840706493326754E-1   -1.073302393466620E-1
 1.081000000000000E+10   4.804932605597367E-1   -1.621078530388470E-1
 1.082000000000000E+10   4.697744130793637E-1   -2.147649781862082E-1
 1.083000000000000E+10   4.521891357491332E-1   -2.656461866762551E-1
 1.084000000000000E+10   4.278571272383948E-1   -3.141952731079658E-1
 1.085000000000000E+10   3.976257936254660E-1   -3.605073545160735E-1
 1.086000000000000E+10   3.618413639586754E-1   -4.042870027185121E-1
 1.087000000000000E+10   3.214959433595593E-1   -4.448612215094433E-1
 1.088000000000000E+10   2.775499594902914E-1   -4.813578389409808E-1
 1.089000000000000E+10   2.308004535454637E-1   -5.132044829212595E-1
 1.090000000000000E+10   1.817572011574725E-1   -5.394529105885664E-1
 1.091000000000000E+10   1.309045904669744E-1   -5.597418404721107E-1
 1.092000000000000E+10   7.868881812055849E-2   -5.736377250463506E-1
 1.093000000000000E+10   2.536973938875743E-2   -5.810646011699829E-1
 1.094000000000000E+10  -2.916563127143212E-2   -5.821764647970924E-1
 1.095000000000000E+10  -8.450220835818395E-2   -5.772790152907792E-1
 1.096000000000000E+10  -1.403627398293503E-1   -5.663195633886235E-1
 1.097000000000000E+10  -1.962817479389364E-1   -5.500331788191846E-1
 1.098000000000000E+10  -2.510365728642889E-1   -5.281531380084451E-1
 1.099000000000000E+10  -3.035546780035781E-1   -5.012927265528240E-1
 1.100000000000000E+10  -3.529599994527326E-1   -4.696400949682434E-1
 1.101000000000000E+10  -3.982430061114228E-1   -4.334460987783725E-1
 1.102000000000000E+10  -4.387923473428261E-1   -3.927049483999928E-1
 1.103000000000000E+10  -4.742517923732560E-1   -3.475232603969907E-1
 1.104000000000000E+10  -5.044310218433985E-1   -2.982623795158167E-1
 1.105000000000000E+10  -5.292795485636475E-1   -2.451464231666880E-1
 1.106000000000000E+10  -5.488048699885821E-1   -1.887488039546065E-1
 1.107000000000000E+10  -5.628400672269757E-1   -1.294157310097998E-1
 1.108000000000000E+10  -5.712370355158358E-1   -6.798786685195868E-2
 1.109000000000000E+10  -5.735802039428093E-1   -5.382743098772451E-3
 1.110000000000000E+10  -5.695815968444851E-1    5.737457728431283E-2
 1.111000000000000E+10  -5.588438412394997E-1    1.192233847854456E-1
 1.112000000000000E+10  -5.412641200171929E-1    1.791449159422397E-1
 1.113000000000000E+10  -5.170097141942592E-1    2.365281004398138E-1
 1.114000000000000E+10  -4.862913037118332E-1    2.907795786901956E-1
 1.115000000000000E+10  -4.492749993140883E-1    3.415558914687427E-1
 1.116000000000000E+10  -4.066990144857251E-1    3.884897412314847E-1
 1.117000000000000E+10  -3.587921785385197E-1    4.311798914243902E-1
 1.118000000000000E+10  -3.062379108779684E-1    4.689912437764793E-1
 1.119000000000000E+10  -2.498739246361072E-1    5.012166263990012E-1
 1.120000000000000E+10  -1.904855708971911E-1    5.272188858753761E-1
 1.121000000000000E+10  -1.288707526785135E-1    5.462641496216932E-1
 1.122000000000000E+10  -6.560459912788298E-2    5.581161627563821E-1
 1.123000000000000E+10  -1.617520475580539E-3    5.623634490144309E-1
 1.124000000000000E+10   6.228359596984675E-2    5.592277633881999E-1
 1.125000000000000E+10   1.256896976163717E-1    5.488295718073922E-1
 1.126000000000000E+10   1.876342508963044E-1    5.314132064662165E-1
 1.127000000000000E+10   2.477997889477580E-1    5.074861010952126E-1
 1.128000000000000E+10   3.053671275615317E-1    4.772303801883216E-1
 1.129000000000000E+10   3.595587622085168E-1    4.410950490105851E-1
 1.130000000000000E+10   4.093239429424471E-1    3.994968483140832E-1
 1.131000000000000E+10   4.539445782684793E-1    3.529462096444361E-1
 1.132000000000000E+10   4.926709032041074E-1    3.020182443016016E-1
 1.133000000000000E+10   5.251572660336236E-1    2.471845921898666E-1
 1.134000000000000E+10   5.510861604876561E-1    1.893633421981364E-1
 1.135000000000000E+10   5.704883116093961E-1    1.290759865304114E-1
 1.136000000000000E+10   5.831572891809133E-1    6.678832551752108E-2
 1.137000000000000E+10   5.892667818349538E-1    3.382784931011848E-3
 1.138000000000000E+10   5.888192916655648E-1   -6.045548580422489E-2
 1.139000000000000E+10   5.815423555003248E-1   -1.241171751163750E-1
 1.140000000000000E+10   5.674520369936230E-1   -1.866431328476039E-1
 1.141000000000000E+10   5.465524508784831E-1   -2.474043361213347E-1
 1.142000000000000E+10   5.187445915913085E-1   -3.053108649461463E-1
 1.143000000000000E+10   4.845448374000224E-1   -3.596904250010688E-1
 1.144000000000000E+10   4.444104670169437E-1   -4.100588094569218E-1
 1.145000000000000E+10   3.988522266255495E-1   -4.557348867102261E-1
 1.146000000000000E+10   3.483552797530499E-1   -4.965786828769296E-1
 1.147000000000000E+10   2.936286357060395E-1   -5.320612379924988E-1
 1.148000000000000E+10   2.351227191114120E-1   -5.615679801549632E-1
 1.149000000000000E+10   1.735967316119400E-1   -5.848521442448281E-1
 1.150000000000000E+10   1.093740359480606E-1   -6.011167991071242E-1
 1.151000000000000E+10   4.332524209243722E-2   -6.099538568674866E-1
 1.152000000000000E+10  -2.368551244528814E-2   -6.111968990350141E-1
 1.153000000000000E+10  -9.087327335299782E-2   -6.046126403351662E-1
 1.154000000000000E+10  -1.572151960255031E-1   -5.900638304893900E-1
 1.155000000000000E+10  -2.219848436334581E-1   -5.678417830878418E-1
 1.156000000000000E+10  -2.841104467027307E-1   -5.383422983541098E-1
 1.157000000000000E+10  -3.431132533660778E-1   -5.019708665258359E-1
 1.158000000000000E+10  -3.980131652849988E-1   -4.590350111348592E-1
 1.159000000000000E+10  -4.478383214961034E-1   -4.098156333827375E-1
 1.160000000000000E+10  -4.920424418890956E-1   -3.544474553599866E-1
 1.161000000000000E+10  -5.296588064947640E-1   -2.937444789206959E-1
 1.162000000000000E+10  -5.598961742188078E-1   -2.278635474398036E-1
 1.163000000000000E+10  -5.821034559203870E-1   -1.580913947745391E-1
 1.164000000000000E+10  -5.959013561730014E-1   -8.520101515004945E-2
 1.165000000000000E+10  -6.014575346834407E-1   -1.077650732115302E-2
 1.166000000000000E+10  -5.982488823387507E-1    6.385263027341384E-2
 1.167000000000000E+10  -5.866630193486256E-1    1.377704102491684E-1
 1.168000000000000E+10  -5.666417134361804E-1    2.096234936800397E-1
 1.169000000000000E+10  -5.380157866794759E-1    2.785071597733311E-1
 1.170000000000000E+10  -5.010249931262362E-1    3.435810282127346E-1
 1.171000000000000E+10  -4.558588563685613E-1    4.034079769552723E-1
 1.172000000000000E+10  -4.031195663642570E-1    4.574275669063196E-1
 1.173000000000000E+10  -3.433966664058003E-1    5.049693550133596E-1
 1.174000000000000E+10  -2.776728157232424E-1    5.453921264844483E-1
 1.175000000000000E+10  -2.073440184498384E-1    5.780877022736964E-1
 1.176000000000000E+10  -1.338778221628469E-1    6.026047987882979E-1
 1.177000000000000E+10  -5.848991058779153E-2    6.187012437413788E-1
 1.178000000000000E+10   1.747961541537521E-2    6.261133871089190E-1
 1.179000000000000E+10   9.274511932224598E-2    6.246622093089195E-1
 1.180000000000000E+10   1.664837652631713E-1    6.144551259454397E-1
 1.181000000000000E+10   2.378719593468817E-1    5.953460006787648E-1
 1.182000000000000E+10   3.062411305522930E-1    5.675653571975043E-1
 1.183000000000000E+10   3.710069049444615E-1    5.317024102035688E-1
 1.184000000000000E+10   4.313560773018464E-1    4.885463041237625E-1
 1.185000000000000E+10   4.867032124381819E-1    4.391548326088245E-1
 1.186000000000000E+10   5.364272976940727E-1    3.847307649514558E-1
 1.187000000000000E+10   5.800313326068037E-1    3.259874963290676E-1
 1.188000000000000E+10   6.170121515549903E-1    2.640581732555642E-1
 1.189000000000000E+10   6.468415497237829E-1    1.994292789604601E-1
 1.190000000000000E+10   6.691434265758484E-1    1.326525765136999E-1
 1.191000000000000E+10   6.834909082937640E-1    6.438029824327164E-2
 1.192000000000000E+10   6.900940943061349E-1   -4.830546713348251E-3
 1.193000000000000E+10   6.890797112614342E-1   -7.467738743627930E-2
 1.194000000000000E+10   6.807752640640281E-1   -1.442825258169960E-1
 1.195000000000000E+10   6.657332201524183E-1   -2.129561015691284E-1
 1.196000000000000E+10   6.446054810595723E-1   -2.797784097488166E-1
 1.197000000000000E+10   6.180264836829099E-1   -3.439717701345986E-1
 1.198000000000000E+10   5.861706555001651E-1   -4.044308937866798E-1
 1.199000000000000E+10   5.495826346169902E-1   -4.607768521761904E-1
 1.200000000000000E+10   5.083646829217995E-1   -5.123635985697930E-1
 1.201000000000000E+10   4.621399623587870E-1   -5.587452843407821E-1
 1.202000000000000E+10   4.113943911654035E-1   -6.000894766508567E-1
 1.203000000000000E+10   3.560722605075852E-1   -6.359623639479638E-1
 1.204000000000000E+10   2.963775757889530E-1   -6.664373018059857E-1
 1.205000000000000E+10   2.329457382670226E-1   -6.915812575926801E-1
 1.206000000000000E+10   1.665603550284262E-1   -7.113403055778119E-1
 1.207000000000000E+10   9.837457866949231E-2   -7.254465533549908E-1
 1.208000000000000E+10   2.931226530518772E-2   -7.337692078098710E-1
 1.209000000000000E+10  -3.973921400059992E-2   -7.360541715636182E-1
 1.210000000000000E+10  -1.078948313471483E-1   -7.318749518819976E-1
 1.211000000000000E+10  -1.750340649036009E-1   -7.208949797769982E-1
 1.212000000000000E+10  -2.405102296891483E-1   -7.027822560162734E-1
 1.213000000000000E+10  -3.043012559561795E-1   -6.774881882482949E-1
 1.214000000000000E+10  -3.661190786691710E-1   -6.449439676810886E-1
 1.215000000000000E+10  -4.257008312387344E-1   -6.055772635907026E-1
 1.216000000000000E+10  -4.824127763115228E-1   -5.598046303296008E-1
 1.217000000000000E+10  -5.355534575464782E-1   -5.083774649331883E-1
 1.218000000000000E+10  -5.842017275273466E-1   -4.517784205027893E-1
 1.219000000000000E+10  -6.274454911655677E-1   -3.905883925952448E-1
 1.220000000000000E+10  -6.641805848377268E-1   -3.254425943565303E-1
 1.221000000000000E+10  -6.936787649432691E-1   -2.567632709484801E-1
 1.222000000000000E+10  -7.150638542650196E-1   -1.844771162190428E-1
 1.223000000000000E+10  -7.279267477128551E-1   -1.093468835300836E-1
 1.224000000000000E+10  -7.323779618014827E-1   -3.123893877447962E-2
 1.225000000000000E+10  -7.277093124681212E-1    4.881695121500348E-2
 1.226000000000000E+10  -7.141215833166616E-1    1.300708384845523E-1
 1.227000000000000E+10  -6.917979976739002E-1    2.107257401848546E-1
 1.228000000000000E+10  -6.609508042670699E-1    2.896262399951020E-1
 1.229000000000000E+10  -6.217607855322677E-1    3.650730197970679E-1
 1.230000000000000E+10  -5.747027143253483E-1    4.352307777898210E-1
 1.231000000000000E+10  -5.192767740943696E-1    4.990585134306532E-1
 1.232000000000000E+10  -4.560660615420507E-1    5.554628317078343E-1
 1.233000000000000E+10  -3.855590778695003E-1    6.032615389537028E-1
 1.234000000000000E+10  -3.077034191619418E-1    6.422662963402692E-1
 1.235000000000000E+10  -2.236628754761992E-1    6.715195563068090E-1
 1.236000000000000E+10  -1.346755674626306E-1    6.909792555714422E-1
 1.237000000000000E+10  -4.251783770498611E-2    6.996031412187979E-1
 1.238000000000000E+10   5.054365177177882E-2    6.978590127242560E-1
 1.239000000000000E+10   1.426907161791778E-1    6.848515449843035E-1
 1.240000000000000E+10   2.316293456843889E-1    6.611955669457237E-1
 1.241000000000000E+10   3.152916949017869E-1    6.269173221862393E-1
 1.242000000000000E+10   3.927580904987905E-1    5.818804757313104E-1
 1.243000000000000E+10   4.628397473269618E-1    5.268331751219769E-1
 1.244000000000000E+10   5.251054464043889E-1    4.626925267948761E-1
 1.245000000000000E+10   5.788234672969337E-1    3.903199096612544E-1
 1.246000000000000E+10   6.234305240992652E-1    3.111459346417023E-1
 1.247000000000000E+10   6.585610108573839E-1    2.272503715978151E-1
 1.248000000000000E+10   6.837785238923401E-1    1.402879170208428E-1
 1.249000000000000E+10   6.987635801253878E-1    5.224252340089226E-2
 1.250000000000000E+10   7.032490191557776E-1   -3.482823566759546E-2
