#  HZ   S   RI   R     50.00 
! Rohde & Schwarz Vector Network Analyzer 
! Rohde-Schwarz,ZNA43-4Port,1332450044101932,2.92
! Created: UTC 6/1/2026, 11:34:15 AM
! freq[Hz]                re:S11                  im:S11
 8.000000000000000E9     8.794638509364283E-1    4.044441797398854E-1
 8.010000000000000E9     9.208346034946729E-1    2.941001174237564E-1
 8.020000000000000E9     9.488891440102414E-1    1.719671384995446E-1
 8.030000000000000E9     9.607376873198957E-1    3.859695989727658E-2
 8.040000000000000E9     9.525380507355480E-1   -1.045551618824968E-1
 8.050000000000000E9     9.208566046682558E-1   -2.543308488124292E-1
 8.060000000000000E9     8.619889404689930E-1   -4.061566752277778E-1
 8.070000000000000E9     7.729544435151140E-1   -5.542116699952394E-1
 8.080000000000000E9     6.514298816229364E-1   -6.906376018753977E-1
 8.090000000000000E9     4.975037679853029E-1   -8.064156144596930E-1
 8.100000000000000E9     3.133566367830096E-1   -8.911988510864585E-1
 8.110000000000000E9     1.055189242707065E-1   -9.352089306867576E-1
 8.120000000000000E9    -1.150392401727507E-1   -9.304862037261401E-1
 8.130000000000000E9    -3.337305992945956E-1   -8.731369426502167E-1
 8.140000000000000E9    -5.348129027167087E-1   -7.653738551080826E-1
 8.150000000000000E9    -7.040764623762733E-1   -6.149801013003370E-1
 8.160000000000000E9    -8.309746843671428E-1   -4.335912789480170E-1
 8.170000000000000E9    -9.105760482362548E-1   -2.352736295639955E-1
 8.180000000000000E9    -9.426257497196285E-1   -3.310091827825246E-2
 8.190000000000000E9    -9.310942219330276E-1    1.618532607918028E-1
 8.200000000000000E9    -8.824354590489617E-1    3.414051087562002E-1
 8.210000000000000E9    -8.044488051367801E-1    4.998303324100361E-1
 8.220000000000000E9    -7.051196396766111E-1    6.346126771795928E-1
 8.230000000000000E9    -5.914469420725805E-1    7.445813710911364E-1
 8.240000000000000E9    -4.694954835130484E-1    8.306039651241240E-1
 8.250000000000000E9    -3.443740259292519E-1    8.937338618271673E-1
 8.260000000000000E9    -2.189988376050509E-1    9.359277866029443E-1
 8.270000000000000E9    -9.549343832871300E-2    9.589626985834557E-1
 8.280000000000000E9     2.456807791048298E-2    9.649049221680741E-1
 8.290000000000000E9     1.408184956818833E-1    9.554052293990891E-1
 8.300000000000000E9     2.522247657075564E-1    9.317445154981225E-1
 8.310000000000000E9     3.578019889232731E-1    8.958413297605873E-1
 8.320000000000000E9     4.569019244969562E-1    8.492794718847142E-1
 8.330000000000000E9     5.486483869734707E-1    7.937275355453998E-1
 8.340000000000000E9     6.322093348901603E-1    7.305643022378223E-1
 8.350000000000000E9     7.070136958386527E-1    6.608254766727452E-1
 8.360000000000000E9     7.728762556882229E-1    5.854977309144882E-1
 8.370000000000000E9     8.295097548758867E-1    5.046651618577069E-1
 8.380000000000000E9     8.764089768428237E-1    4.189689956343473E-1
 8.390000000000000E9     9.136849950398941E-1    3.284745249645989E-1
 8.400000000000000E9     9.412005467685644E-1    2.335306441834632E-1
 8.410000000000000E9     9.589949531701362E-1    1.348717349597432E-1
 8.420000000000000E9     9.667373634315390E-1    3.357349514782962E-2
 8.430000000000000E9     9.643194728310734E-1   -6.930521396264734E-2
 8.440000000000000E9     9.516504206420749E-1   -1.720753402668342E-1
 8.450000000000000E9     9.286544108545919E-1   -2.732228932790790E-1
 8.460000000000000E9     8.948225986535838E-1   -3.714024261516907E-1
 8.470000000000000E9     8.500685789955023E-1   -4.658703947145710E-1
 8.480000000000000E9     7.941381216628136E-1   -5.554730355225819E-1
 8.490000000000000E9     7.268066600282518E-1   -6.395148981223557E-1
 8.500000000000000E9     6.481179475567690E-1   -7.171743922341901E-1
 8.510000000000000E9     5.577855012721100E-1   -7.865282136929176E-1
 8.520000000000000E9     4.569853861225862E-1   -8.468460475639776E-1
 8.530000000000000E9     3.476540702254192E-1   -8.959512976236729E-1
 8.540000000000000E9     2.313923448128558E-1   -9.326061832484596E-1
 8.550000000000000E9     1.103645670837065E-1   -9.552317041592158E-1
 8.560000000000000E9    -1.322577591340158E-2   -9.622523058560901E-1
 8.570000000000000E9    -1.372363055587886E-1   -9.530661299404309E-1
 8.580000000000000E9    -2.599427610167062E-1   -9.267936145773725E-1
 8.590000000000000E9    -3.791915701094037E-1   -8.832643742190355E-1
 8.600000000000000E9    -4.931435913798165E-1   -8.224254324502309E-1
 8.610000000000000E9    -5.997031036479413E-1   -7.451832857842406E-1
 8.620000000000000E9    -6.963353222877868E-1   -6.530098430959230E-1
 8.630000000000000E9    -7.806062414598327E-1   -5.479095021754097E-1
 8.640000000000000E9    -8.505488016432082E-1   -4.323210386185808E-1
 8.650000000000000E9    -9.040456670822674E-1   -3.088699091206110E-1
 8.660000000000000E9    -9.397923272367414E-1   -1.803153314832994E-1
 8.670000000000000E9    -9.568593707378539E-1   -4.926989626329512E-2
 8.680000000000000E9    -9.549648360260697E-1    8.189910754519429E-2
 8.690000000000000E9    -9.343938415569776E-1    2.109687257263903E-1
 8.700000000000000E9    -8.955744465380099E-1    3.360326632369390E-1
 8.710000000000000E9    -8.399167227502123E-1    4.549098138400010E-1
 8.720000000000000E9    -7.687904672957151E-1    5.652538480034314E-1
 8.730000000000000E9    -6.845100224411413E-1    6.649150289620802E-1
 8.740000000000000E9    -5.893042647948322E-1    7.519239460943870E-1
 8.750000000000000E9    -4.852784647766278E-1    8.249218018419120E-1
 8.760000000000000E9    -3.744529020494463E-1    8.826975510590400E-1
 8.770000000000000E9    -2.588394219717818E-1    9.246352770166467E-1
 8.780000000000000E9    -1.393497325749847E-1    9.503740601724296E-1
 8.790000000000000E9    -1.759800926893540E-2    9.596677807222624E-1
 8.800000000000000E9     1.046004394910766E-1    9.527829593334646E-1
 8.810000000000000E9     2.254727196080305E-1    9.297973424454540E-1
 8.820000000000000E9     3.431722308588593E-1    8.923850815099120E-1
 8.830000000000000E9     4.562598006256116E-1    8.405574805749918E-1
 8.840000000000000E9     5.618995410494203E-1    7.750355551122233E-1
 8.850000000000000E9     6.580914281349810E-1    6.969863489297410E-1
 8.860000000000000E9     7.427112077017093E-1    6.075264589003694E-1
 8.870000000000000E9     8.147968283242251E-1    5.076216540283378E-1
 8.880000000000000E9     8.728159046686726E-1    3.986115381165903E-1
 8.890000000000000E9     9.157844874356986E-1    2.811349050834621E-1
 8.900000000000000E9     9.431464349670512E-1    1.567846498314064E-1
 8.910000000000000E9     9.537034351060950E-1    2.759916515022940E-2
 8.920000000000000E9     9.468685691716097E-1   -1.042988591228149E-1
 8.930000000000000E9     9.221555401315743E-1   -2.361690233369015E-1
 8.940000000000000E9     8.793940204337950E-1   -3.647047380835717E-1
 8.950000000000000E9     8.188458885227463E-1   -4.864174110830712E-1
 8.960000000000000E9     7.412370446453938E-1   -5.985177074003714E-1
 8.970000000000000E9     6.476359298029328E-1   -6.981108293392650E-1
 8.980000000000000E9     5.394320367676435E-1   -7.832108644261918E-1
 8.990000000000000E9     4.186072507834619E-1   -8.519801114095642E-1
 9.000000000000000E9     2.873127696902896E-1   -9.022800332160176E-1
 9.010000000000000E9     1.485881175394811E-1   -9.334040624613533E-1
 9.020000000000000E9     5.749272159411037E-3   -9.444239872541706E-1
 9.030000000000000E9    -1.369666939234523E-1   -9.345816821073178E-1
 9.040000000000000E9    -2.753303439858087E-1   -9.043672256194625E-1
 9.050000000000000E9    -4.061455558540559E-1   -8.550612912911314E-1
 9.060000000000000E9    -5.258932272231562E-1   -7.884984592765641E-1
 9.070000000000000E9    -6.326643690048851E-1   -7.061907258695348E-1
 9.080000000000000E9    -7.245821014449537E-1   -6.109130212611870E-1
 9.090000000000000E9    -8.009296633510518E-1   -5.050173542559245E-1
 9.100000000000000E9    -8.617444683209186E-1   -3.909345338025901E-1
 9.110000000000000E9    -9.063445585498865E-1   -2.712764723713649E-1
 9.120000000000000E9    -9.349551335332527E-1   -1.489614826102819E-1
 9.130000000000000E9    -9.478920738623485E-1   -2.668054528197657E-2
 9.140000000000000E9    -9.457820587147150E-1    9.288324437608549E-2
 9.150000000000000E9    -9.295903464080898E-1    2.075275339469154E-1
 9.160000000000000E9    -9.005950983645067E-1    3.154481157630499E-1
 9.170000000000000E9    -8.603320852087188E-1    4.155974574706288E-1
 9.180000000000000E9    -8.099267935930538E-1    5.074702568503312E-1
 9.190000000000000E9    -7.512167695416391E-1    5.910075490257277E-1
 9.200000000000000E9    -6.853984964271373E-1    6.663617673317180E-1
 9.210000000000000E9    -6.135577074320310E-1    7.338167143611427E-1
 9.220000000000000E9    -5.364055263343079E-1    7.931155527874097E-1
 9.230000000000000E9    -4.555866053455179E-1    8.438599376831510E-1
 9.240000000000000E9    -3.716588384550778E-1    8.859549057539968E-1
 9.250000000000000E9    -2.858113116224733E-1    9.191449544389569E-1
 9.260000000000000E9    -1.995546945397918E-1    9.432234003859465E-1
 9.270000000000000E9    -1.134721577840020E-1    9.584888408554144E-1
 9.280000000000000E9    -2.810282014762242E-2    9.653397207964907E-1
 9.290000000000000E9     5.607328532569918E-2    9.642730889881498E-1
 9.300000000000000E9     1.389112186905223E-1    9.558191293856181E-1
 9.310000000000000E9     2.203948210509203E-1    9.404415801114367E-1
 9.320000000000000E9     3.002346674698206E-1    9.185410812761133E-1
 9.330000000000000E9     3.781564572563397E-1    8.902842977785039E-1
 9.340000000000000E9     4.536610068084455E-1    8.557181585984194E-1
 9.350000000000000E9     5.260038925963144E-1    8.149490705714364E-1
 9.360000000000000E9     5.945384689998223E-1    7.678125226444987E-1
 9.370000000000000E9     6.585132002341133E-1    7.149730583145765E-1
 9.380000000000000E9     7.174364957979231E-1    6.565153116061908E-1
 9.390000000000000E9     7.707560018194091E-1    5.927199153159861E-1
 9.400000000000000E9     8.186979116332967E-1    5.240726531055040E-1
 9.410000000000000E9     8.607986004758897E-1    4.506315175821710E-1
 9.420000000000000E9     8.971087682631324E-1    3.726906749536167E-1
 9.430000000000000E9     9.273041887032286E-1    2.899901520812523E-1
 9.440000000000000E9     9.503862226345288E-1    2.025310165552367E-1
 9.450000000000000E9     9.654819671778899E-1    1.107240534867549E-1
 9.460000000000000E9     9.715117465956167E-1    1.503256168276119E-2
 9.470000000000000E9     9.675226972425951E-1   -8.423563731046989E-2
 9.480000000000000E9     9.523674926625796E-1   -1.853620325924116E-1
 9.490000000000000E9     9.251355725237841E-1   -2.873749273183986E-1
 9.500000000000000E9     8.859432071737935E-1   -3.890485395993372E-1
 9.510000000000000E9     8.330854151550772E-1   -4.885769947299636E-1
 9.520000000000000E9     7.661787558374737E-1   -5.847566327937418E-1
 9.530000000000000E9     6.851757876604101E-1   -6.756271658203968E-1
 9.540000000000000E9     5.892870130307361E-1   -7.587486942245993E-1
 9.550000000000000E9     4.780519362314909E-1   -8.312060594894972E-1
 9.560000000000000E9     3.519625220752314E-1   -8.891059272586894E-1
 9.570000000000000E9     2.123908059716368E-1   -9.287550022068588E-1
 9.580000000000000E9     6.217845315475256E-2   -9.465550018737032E-1
 9.590000000000000E9    -9.430396409421073E-2   -9.392252771709122E-1
 9.600000000000000E9    -2.521906097249492E-1   -9.046340454440864E-1
 9.610000000000000E9    -4.056410341929153E-1   -8.421666792684002E-1
 9.620000000000000E9    -5.481585174512343E-1   -7.524102100225368E-1
 9.630000000000000E9    -6.741068587905443E-1   -6.371706413370406E-1
 9.640000000000000E9    -7.777491177482326E-1   -5.003640909050628E-1
 9.650000000000000E9    -8.542448506044721E-1   -3.464143272784366E-1
 9.660000000000000E9    -9.003397198485641E-1   -1.821828666648461E-1
 9.670000000000000E9    -9.154052129186022E-1   -1.483407593029174E-2
 9.680000000000000E9    -9.006397423543291E-1    1.486869533695570E-1
 9.690000000000000E9    -8.592289411131805E-1    3.024197163745648E-1
 9.700000000000000E9    -7.953641847817317E-1    4.419485044368375E-1
 9.710000000000000E9    -7.138263398973205E-1    5.640085401004001E-1
 9.720000000000000E9    -6.189842220558673E-1    6.675999968441640E-1
 9.730000000000000E9    -5.149030768241213E-1    7.518410774148397E-1
 9.740000000000000E9    -4.049677603685571E-1    8.170970930364139E-1
 9.750000000000000E9    -2.921546966291928E-1    8.642682830792605E-1
 9.760000000000000E9    -1.790643240032193E-1    8.946902699117254E-1
 9.770000000000000E9    -6.784812781594020E-2    9.098654146910419E-1
 9.780000000000000E9     3.924087815232611E-2    9.115609856745736E-1
 9.790000000000000E9     1.411910519567423E-1    9.018088484604251E-1
 9.800000000000000E9     2.368032712741759E-1    8.824449008017325E-1
 9.810000000000000E9     3.257114552826218E-1    8.550545291890268E-1
 9.820000000000000E9     4.075561715816424E-1    8.209355081452900E-1
 9.830000000000000E9     4.828777652089103E-1    7.806534071124969E-1
 9.840000000000000E9     5.516019291238439E-1    7.349458462499602E-1
 9.850000000000000E9     6.139569174048067E-1    6.841140862275326E-1
 9.860000000000000E9     6.699282172575625E-1    6.287467902903275E-1
 9.870000000000000E9     7.197296454330735E-1    5.696367677287503E-1
 9.880000000000000E9     7.636191147665882E-1    5.076116451089234E-1
 9.890000000000000E9     8.017960682112192E-1    4.438618149355067E-1
 9.900000000000000E9     8.343711195165653E-1    3.790579323038026E-1
 9.910000000000000E9     8.615883733265290E-1    3.138376501352097E-1
 9.920000000000000E9     8.835615964365807E-1    2.485802881224405E-1
 9.930000000000000E9     9.004324890406821E-1    1.834490887875100E-1
 9.940000000000000E9     9.120592046133570E-1    1.182274259642216E-1
 9.950000000000000E9     9.184255521658249E-1    5.273825487347802E-2
 9.960000000000000E9     9.194513842825152E-1   -1.307571243078931E-2
 9.970000000000000E9     9.151519217018397E-1   -7.935353484346945E-2
 9.980000000000000E9     9.057912142959151E-1   -1.458725236558280E-1
 9.990000000000000E9     8.915125876566353E-1   -2.120647976850100E-1
 1.000000000000000E+10   8.728703947896947E-1   -2.774053014769821E-1
 1.001000000000000E+10   8.502282947684824E-1   -3.415578505395359E-1
 1.002000000000000E+10   8.234974106435541E-1   -4.038219081551653E-1
 1.003000000000000E+10   7.927789345443159E-1   -4.638807937140891E-1
 1.004000000000000E+10   7.577727341278019E-1   -5.216816809687610E-1
 1.005000000000000E+10   7.180103185707672E-1   -5.772264576712167E-1
 1.006000000000000E+10   6.727761048540462E-1   -6.304473363430989E-1
 1.007000000000000E+10   6.217265675960927E-1   -6.811492117772744E-1
 1.008000000000000E+10   5.641671887737669E-1   -7.290080127283487E-1
 1.009000000000000E+10   5.002398239046408E-1   -7.737817321280779E-1
 1.010000000000000E+10   4.304413443466477E-1   -8.146343495910034E-1
 1.011000000000000E+10   3.551167733130752E-1   -8.506828367408358E-1
 1.012000000000000E+10   2.755144619968143E-1   -8.814458654547622E-1
 1.013000000000000E+10   1.918349617300057E-1   -9.056543109140707E-1
 1.014000000000000E+10   1.044352247310340E-1   -9.223270967842983E-1
 1.015000000000000E+10   1.379145454092402E-2   -9.305031625809489E-1
 1.016000000000000E+10  -8.045299701097255E-2   -9.288254608953089E-1
 1.017000000000000E+10  -1.783377601312779E-1   -9.158684276980185E-1
 1.018000000000000E+10  -2.790039028034013E-1   -8.902396049435628E-1
 1.019000000000000E+10  -3.814414396579828E-1   -8.509173003114796E-1
 1.020000000000000E+10  -4.840669624791860E-1   -7.966968176720788E-1
 1.021000000000000E+10  -5.839480793401192E-1   -7.273286844590847E-1
 1.022000000000000E+10  -6.777960491772723E-1   -6.427797845819307E-1
 1.023000000000000E+10  -7.624017328546222E-1   -5.441725456866265E-1
 1.024000000000000E+10  -8.345579531723306E-1   -4.324030239601255E-1
 1.025000000000000E+10  -8.907496503658181E-1   -3.088952209812216E-1
 1.026000000000000E+10  -9.286803472642245E-1   -1.750906105581662E-1
 1.027000000000000E+10  -9.456761694560426E-1   -3.314277188712507E-2
 1.028000000000000E+10  -9.395022981005714E-1    1.145463379901930E-1
 1.029000000000000E+10  -9.083251851980397E-1    2.640128076496670E-1
 1.030000000000000E+10  -8.522006148991194E-1    4.105041693393124E-1
 1.031000000000000E+10  -7.719709473531132E-1    5.482851758176152E-1
 1.032000000000000E+10  -6.705313961885869E-1    6.718685312056452E-1
 1.033000000000000E+10  -5.517997623884565E-1    7.764947976587906E-1
 1.034000000000000E+10  -4.203006201774552E-1    8.590489003169464E-1
 1.035000000000000E+10  -2.802861598890067E-1    9.175386184977254E-1
 1.036000000000000E+10  -1.363198089166165E-1    9.518915561759975E-1
 1.037000000000000E+10   8.529464716335936E-3    9.624374854582883E-1
 1.038000000000000E+10   1.506350373917354E-1    9.506654475663281E-1
 1.039000000000000E+10   2.870008517719175E-1    9.184051713452460E-1
 1.040000000000000E+10   4.149070118881238E-1    8.685713506200718E-1
 1.041000000000000E+10   5.316968519368291E-1    8.038351575837112E-1
 1.042000000000000E+10   6.355279434945259E-1    7.269667692062058E-1
 1.043000000000000E+10   7.247973236715662E-1    6.410901891785062E-1
 1.044000000000000E+10   7.992477877470527E-1    5.482704305214329E-1
 1.045000000000000E+10   8.588346787332267E-1    4.509082053849336E-1
 1.046000000000000E+10   9.037976019435939E-1    3.490624695433685E-1
 1.047000000000000E+10   9.347996508108927E-1    2.443481546940410E-1
 1.048000000000000E+10   9.520515787883752E-1    1.367176553606984E-1
 1.049000000000000E+10   9.530076359860032E-1    2.607858264503050E-2
 1.050000000000000E+10   9.310396717432986E-1   -8.498857843763594E-2
 1.051000000000000E+10   8.691614818462784E-1   -1.715818144342542E-1
 1.052000000000000E+10   8.419757219566598E-1   -1.729749706980272E-1
 1.053000000000000E+10   8.861227479051540E-1   -2.421093846888979E-1
 1.054000000000000E+10   8.828134062351526E-1   -3.433417367831304E-1
 1.055000000000000E+10   8.544006104930445E-1   -4.345992236532758E-1
 1.056000000000000E+10   8.139402645211565E-1   -5.155330874602254E-1
 1.057000000000000E+10   7.646043290721083E-1   -5.880481184985984E-1
 1.058000000000000E+10   7.085462977027885E-1   -6.535738381176959E-1
 1.059000000000000E+10   6.464320580123136E-1   -7.132885457218947E-1
 1.060000000000000E+10   5.789539058570113E-1   -7.672778514099612E-1
 1.061000000000000E+10   5.070656569651126E-1   -8.157419133501476E-1
 1.062000000000000E+10   4.318552309811934E-1   -8.581096604737045E-1
 1.063000000000000E+10   3.545931070037592E-1   -8.939228925651594E-1
 1.064000000000000E+10   2.758670588750446E-1   -9.227887056921563E-1
 1.065000000000000E+10   1.963903807613387E-1   -9.437966473899593E-1
 1.066000000000000E+10   1.163889540161286E-1   -9.572530935012243E-1
 1.067000000000000E+10   3.616045264928068E-2   -9.626706798378247E-1
 1.068000000000000E+10  -4.491307604532694E-2   -9.602950655739952E-1
 1.069000000000000E+10  -1.270430893060159E-1   -9.502407081828552E-1
 1.070000000000000E+10  -2.100048862248831E-1   -9.325588822801961E-1
 1.071000000000000E+10  -2.934823518842138E-1   -9.070525240455800E-1
 1.072000000000000E+10  -3.761601308124861E-1   -8.742261623010052E-1
 1.073000000000000E+10  -4.568252193433834E-1   -8.341175407729503E-1
 1.074000000000000E+10  -5.339135468912536E-1   -7.871324987019894E-1
 1.075000000000000E+10  -6.059798950747244E-1   -7.336915268983899E-1
 1.076000000000000E+10  -6.722073775532736E-1   -6.734466029367600E-1
 1.077000000000000E+10  -7.318188645526438E-1   -6.068834139088964E-1
 1.078000000000000E+10  -7.847424114159998E-1   -5.337928903577783E-1
 1.079000000000000E+10  -8.302847026241411E-1   -4.541617138023321E-1
 1.080000000000000E+10  -8.685018424570866E-1   -3.681612358972915E-1
 1.081000000000000E+10  -8.988908186104538E-1   -2.759666220921816E-1
 1.082000000000000E+10  -9.210638652084779E-1   -1.784847601369213E-1
 1.083000000000000E+10  -9.337197368130612E-1   -7.720787247292919E-2
 1.084000000000000E+10  -9.364308551071524E-1    2.638021861817828E-2
 1.085000000000000E+10  -9.280334089508605E-1    1.302866683965936E-1
 1.086000000000000E+10  -9.082992324797018E-1    2.324994163588882E-1
 1.087000000000000E+10  -8.768539265259579E-1    3.315773163239106E-1
 1.088000000000000E+10  -8.335585181760234E-1    4.269462928658614E-1
 1.089000000000000E+10  -7.785892880561742E-1    5.172985891994327E-1
 1.090000000000000E+10  -7.123483939647207E-1    6.020748530909066E-1
 1.091000000000000E+10  -6.354361996718314E-1    6.803759306278423E-1
 1.092000000000000E+10  -5.482385522686678E-1    7.513353356652638E-1
 1.093000000000000E+10  -4.517977319427501E-1    8.128972224648032E-1
 1.094000000000000E+10  -3.482064009309495E-1    8.636330267475441E-1
 1.095000000000000E+10  -2.392910664856787E-1    9.016713396511676E-1
 1.096000000000000E+10  -1.270829506496612E-1    9.261940966942767E-1
 1.097000000000000E+10  -1.393321093301477E-2    9.362514531191057E-1
 1.098000000000000E+10   9.878564354308525E-2    9.321297306766679E-1
 1.099000000000000E+10   2.098048670523310E-1    9.141392258082323E-1
 1.100000000000000E+10   3.179159242589245E-1    8.824643941477625E-1
 1.101000000000000E+10   4.221925501079961E-1    8.378978841017470E-1
 1.102000000000000E+10   5.217185797236260E-1    7.807946094110625E-1
 1.103000000000000E+10   6.147148220393123E-1    7.122093325470555E-1
 1.104000000000000E+10   6.992588419158176E-1    6.332102104578692E-1
 1.105000000000000E+10   7.733859978464949E-1    5.452725607763979E-1
 1.106000000000000E+10   8.357197927090102E-1    4.505455488171111E-1
 1.107000000000000E+10   8.851398249168405E-1    3.505992988312113E-1
 1.108000000000000E+10   9.216038711341519E-1    2.469432172425962E-1
 1.109000000000000E+10   9.450006996334418E-1    1.411107669176845E-1
 1.110000000000000E+10   9.558672262887459E-1    3.430920811457718E-2
 1.111000000000000E+10   9.547524814156442E-1   -7.257570928939673E-2
 1.112000000000000E+10   9.419805517431069E-1   -1.788709523950233E-1
 1.113000000000000E+10   9.179690593925111E-1   -2.832983203586077E-1
 1.114000000000000E+10   8.827774258657476E-1   -3.848155653414333E-1
 1.115000000000000E+10   8.368673763314016E-1   -4.813773708465471E-1
 1.116000000000000E+10   7.805653209990187E-1   -5.717507249854471E-1
 1.117000000000000E+10   7.147915114481528E-1   -6.543190384577003E-1
 1.118000000000000E+10   6.411328309425289E-1   -7.280438008969015E-1
 1.119000000000000E+10   5.603144728647981E-1   -7.923392746592754E-1
 1.120000000000000E+10   4.733056982184569E-1   -8.475093261257606E-1
 1.121000000000000E+10   3.807984555103006E-1   -8.931214552531174E-1
 1.122000000000000E+10   2.840879805020592E-1   -9.289885734119391E-1
 1.123000000000000E+10   1.836915741457281E-1   -9.547830422108694E-1
 1.124000000000000E+10   8.046450578529905E-2   -9.698991294601526E-1
 1.125000000000000E+10  -2.364553454862415E-2   -9.740152949829395E-1
 1.126000000000000E+10  -1.276819634557847E-1   -9.665573824321848E-1
 1.127000000000000E+10  -2.299601261088751E-1   -9.474462053456849E-1
 1.128000000000000E+10  -3.291747018508282E-1   -9.172077357179020E-1
 1.129000000000000E+10  -4.239038547098802E-1   -8.760913718563506E-1
 1.130000000000000E+10  -5.138730505454397E-1   -8.247466918587676E-1
 1.131000000000000E+10  -5.977740334876659E-1   -7.635731737759478E-1
 1.132000000000000E+10  -6.755160392170070E-1   -6.938941474338488E-1
 1.133000000000000E+10  -7.457929114724763E-1   -6.160815408193148E-1
 1.134000000000000E+10  -8.077710188388201E-1   -5.308155791269592E-1
 1.135000000000000E+10  -8.605376216244536E-1   -4.386380992606122E-1
 1.136000000000000E+10  -9.026959752064071E-1   -3.409723439168664E-1
 1.137000000000000E+10  -9.333393811475762E-1   -2.390893147444601E-1
 1.138000000000000E+10  -9.517357963515987E-1   -1.342006190844239E-1
 1.139000000000000E+10  -9.582665804937155E-1   -2.831137243614154E-2
 1.140000000000000E+10  -9.527690115220995E-1    7.736657677965400E-2
 1.141000000000000E+10  -9.359230263967834E-1    1.814798028716171E-1
 1.142000000000000E+10  -9.080935134432235E-1    2.831809836095208E-1
 1.143000000000000E+10  -8.697427353641235E-1    3.812384300851588E-1
 1.144000000000000E+10  -8.212360170929970E-1    4.749882925151526E-1
 1.145000000000000E+10  -7.628834933679265E-1    5.627231727992081E-1
 1.146000000000000E+10  -6.949837439519773E-1    6.431394138584822E-1
 1.147000000000000E+10  -6.186339176264609E-1    7.151526398655544E-1
 1.148000000000000E+10  -5.348813522218112E-1    7.775403075832473E-1
 1.149000000000000E+10  -4.449470877793969E-1    8.300780192359216E-1
 1.150000000000000E+10  -3.504470132977712E-1    8.719929191538226E-1
 1.151000000000000E+10  -2.527367361701711E-1    9.035324216939696E-1
 1.152000000000000E+10  -1.528655814895392E-1    9.245395384826605E-1
 1.153000000000000E+10  -5.173401908296153E-2    9.350853678517960E-1
 1.154000000000000E+10   4.931098239371424E-2    9.353165391842786E-1
 1.155000000000000E+10   1.493010726710330E-1    9.250103704060143E-1
 1.156000000000000E+10   2.474702324823789E-1    9.042061586272842E-1
 1.157000000000000E+10   3.422865660724581E-1    8.729026063951874E-1
 1.158000000000000E+10   4.325666021653286E-1    8.317123542359269E-1
 1.159000000000000E+10   5.173838624015031E-1    7.811308913086061E-1
 1.160000000000000E+10   5.956428450206394E-1    7.226879292980414E-1
 1.161000000000000E+10   6.666148585922045E-1    6.573440120772430E-1
 1.162000000000000E+10   7.303256483041408E-1    5.863794615761520E-1
 1.163000000000000E+10   7.862611313205033E-1    5.104682253284945E-1
 1.164000000000000E+10   8.341466465226625E-1    4.305454171769462E-1
 1.165000000000000E+10   8.734286973696365E-1    3.469754048022725E-1
 1.166000000000000E+10   9.039529703312970E-1    2.602501025434030E-1
 1.167000000000000E+10   9.250890370439082E-1    1.710816690077465E-1
 1.168000000000000E+10   9.367524822828186E-1    8.016236455889766E-2
 1.169000000000000E+10   9.394416413538569E-1   -1.157130562466361E-2
 1.170000000000000E+10   9.330643854770190E-1   -1.026687230825697E-1
 1.171000000000000E+10   9.185810426289790E-1   -1.928580692533749E-1
 1.172000000000000E+10   8.960244049260083E-1   -2.805183908372311E-1
 1.173000000000000E+10   8.663643094999206E-1   -3.648891184620895E-1
 1.174000000000000E+10   8.297149712436722E-1   -4.452529114108347E-1
 1.175000000000000E+10   7.861441074853975E-1   -5.211612182326509E-1
 1.176000000000000E+10   7.359466286214118E-1   -5.918415129173209E-1
 1.177000000000000E+10   6.793281917655474E-1   -6.571177211960595E-1
 1.178000000000000E+10   6.164259508413796E-1   -7.167103417099466E-1
 1.179000000000000E+10   5.471089556476657E-1   -7.700672117643907E-1
 1.180000000000000E+10   4.725344473337582E-1   -8.171407932352035E-1
 1.181000000000000E+10   3.930200431989213E-1   -8.576089345717923E-1
 1.182000000000000E+10   3.097874494698672E-1   -8.907727217453730E-1
 1.183000000000000E+10   2.239598276416941E-1   -9.171499343876868E-1
 1.184000000000000E+10   1.358704117940515E-1   -9.357125634938637E-1
 1.185000000000000E+10   4.653933244043987E-2   -9.461233298500346E-1
 1.186000000000000E+10  -4.352846735844716E-2   -9.483139350025224E-1
 1.187000000000000E+10  -1.338149016932068E-1   -9.412857411701491E-1
 1.188000000000000E+10  -2.236983195383545E-1   -9.248057650369103E-1
 1.189000000000000E+10  -3.125180067988834E-1   -8.987426065208405E-1
 1.190000000000000E+10  -3.992616024651605E-1   -8.632270757633558E-1
 1.191000000000000E+10  -4.833877575146526E-1   -8.187526092412609E-1
 1.192000000000000E+10  -5.641919800831618E-1   -7.655384645430414E-1
 1.193000000000000E+10  -6.400035499295564E-1   -7.040790432626499E-1
 1.194000000000000E+10  -7.102229400865460E-1   -6.354052583487266E-1
 1.195000000000000E+10  -7.734044008945828E-1   -5.594811755108203E-1
 1.196000000000000E+10  -8.288984388282208E-1   -4.766554374019298E-1
 1.197000000000000E+10  -8.751735487188299E-1   -3.868229031358429E-1
 1.198000000000000E+10  -9.118232854209710E-1   -2.912168156843180E-1
 1.199000000000000E+10  -9.372945772464325E-1   -1.897682128142035E-1
 1.200000000000000E+10  -9.514050689402193E-1   -8.347626664343814E-2
 1.201000000000000E+10  -9.532137372717832E-1    2.579404629649914E-2
 1.202000000000000E+10  -9.424652341981603E-1    1.372252776464760E-1
 1.203000000000000E+10  -9.191758551029308E-1    2.478774991613373E-1
 1.204000000000000E+10  -8.835599780774234E-1    3.557358481446710E-1
 1.205000000000000E+10  -8.355863759615000E-1    4.586270675903431E-1
 1.206000000000000E+10  -7.756648045248277E-1    5.549146611008570E-1
 1.207000000000000E+10  -7.043395881369785E-1    6.434069733630599E-1
 1.208000000000000E+10  -6.216194789804281E-1    7.222388307940939E-1
 1.209000000000000E+10  -5.283588017289302E-1    7.904505969280725E-1
 1.210000000000000E+10  -4.260472321403426E-1    8.468059491720390E-1
 1.211000000000000E+10  -3.161820982990405E-1    8.900916541304836E-1
 1.212000000000000E+10  -2.009120194443321E-1    9.203632473830091E-1
 1.213000000000000E+10  -8.290415564806264E-2    9.365141351150604E-1
 1.214000000000000E+10   3.519458011140818E-2    9.388824725391351E-1
 1.215000000000000E+10   1.516787393369042E-1    9.267970038069178E-1
 1.216000000000000E+10   2.641560526314302E-1    9.008923227802514E-1
 1.217000000000000E+10   3.707854013124385E-1    8.613003785510970E-1
 1.218000000000000E+10   4.705327006691613E-1    8.088616960734462E-1
 1.219000000000000E+10   5.619746586258535E-1    7.442047064184319E-1
 1.220000000000000E+10   6.445153808034290E-1    6.688409806355853E-1
 1.221000000000000E+10   7.174750325732540E-1    5.844485543041616E-1
 1.222000000000000E+10   7.798271503004385E-1    4.928220568110585E-1
 1.223000000000000E+10   8.314202033799055E-1    3.961837228318484E-1
 1.224000000000000E+10   8.714676020850670E-1    2.961798459913831E-1
 1.225000000000000E+10   8.997762076919831E-1    1.952115284023059E-1
 1.226000000000000E+10   9.161147327374515E-1    9.478802406422998E-2
 1.227000000000000E+10   9.210613166108698E-1   -4.658635569060093E-3
 1.228000000000000E+10   9.143690319959061E-1   -1.020672488427793E-1
 1.229000000000000E+10   8.965835295638136E-1   -1.969432507893222E-1
 1.230000000000000E+10   8.686775193256819E-1   -2.890531597321234E-1
 1.231000000000000E+10   8.310069345654288E-1   -3.776652834711921E-1
 1.232000000000000E+10   7.849722102322358E-1   -4.617730693078357E-1
 1.233000000000000E+10   7.315503244572248E-1   -5.406873975739058E-1
 1.234000000000000E+10   6.722566657036386E-1   -6.130614728183664E-1
 1.235000000000000E+10   6.079596897952442E-1   -6.783162929071180E-1
 1.236000000000000E+10   5.398039142564831E-1   -7.353585322501152E-1
 1.237000000000000E+10   4.685959649811411E-1   -7.843238953240622E-1
 1.238000000000000E+10   3.942625174409324E-1   -8.244549114304253E-1
 1.239000000000000E+10   3.173032271688804E-1   -8.566779352469257E-1
 1.240000000000000E+10   2.376961733897926E-1   -8.806418046632154E-1
 1.241000000000000E+10   1.556652529149541E-1   -8.969897269312406E-1
 1.242000000000000E+10   7.170453255370175E-2   -9.061486722517640E-1
 1.243000000000000E+10  -1.307007521609567E-2   -9.085117844835995E-1
 1.244000000000000E+10  -9.729248884425680E-2   -9.039020920302028E-1
 1.245000000000000E+10  -1.800826529013176E-1   -8.927002893886601E-1
 1.246000000000000E+10  -2.605321978082519E-1   -8.750585915343067E-1
 1.247000000000000E+10  -3.372854413473234E-1   -8.506703361307342E-1
 1.248000000000000E+10  -4.102816685762891E-1   -8.199099659413509E-1
 1.249000000000000E+10  -4.796038027349045E-1   -7.824496703251912E-1
 1.250000000000000E+10  -5.449656777010976E-1   -7.384593390109788E-1
