#  HZ   S   RI   R     50.00 
! Rohde & Schwarz Vector Network Analyzer 
! Rohde-Schwarz,ZNA43-4Port,1332450044101932,2.92
! Created: UTC 6/1/2026, 11:33:46 AM
! freq[Hz]                re:S11                  im:S11
 8.000000000000000E9     8.686258656027430E-2    2.057929429364876E-1
 8.010000000000000E9     7.360346186417338E-2    2.064050341039397E-1
 8.020000000000000E9     6.101247791619954E-2    2.100083069551544E-1
 8.030000000000000E9     5.003232789787333E-2    2.161028344324168E-1
 8.040000000000000E9     4.150734304243674E-2    2.242015820683587E-1
 8.050000000000000E9     3.611314918101516E-2    2.340597054833809E-1
 8.060000000000000E9     3.417654365291504E-2    2.451852874117882E-1
 8.070000000000000E9     3.602815336743535E-2    2.574123315337287E-1
 8.080000000000000E9     4.154494091639784E-2    2.703576659917717E-1
 8.090000000000000E9     5.050643307076394E-2    2.836398881837696E-1
 8.100000000000000E9     6.253817038389596E-2    2.966327615581806E-1
 8.110000000000000E9     7.694370568618988E-2    3.087663425860510E-1
 8.120000000000000E9     9.333206242927328E-2    3.194018697289227E-1
 8.130000000000000E9     1.114512714499361E-1    3.277434388608116E-1
 8.140000000000000E9     1.309117805777766E-1    3.333330720098816E-1
 8.150000000000000E9     1.515846308192369E-1    3.356665071746145E-1
 8.160000000000000E9     1.733171292245238E-1    3.346126478205978E-1
 8.170000000000000E9     1.959818098106864E-1    3.300101271698682E-1
 8.180000000000000E9     2.193533091197224E-1    3.221616017249317E-1
 8.190000000000000E9     2.431702047121272E-1    3.114008475889652E-1
 8.200000000000000E9     2.667227629118840E-1    2.979487601079744E-1
 8.210000000000000E9     2.896032105699499E-1    2.822766505506072E-1
 8.220000000000000E9     3.109652857615452E-1    2.644704642728484E-1
 8.230000000000000E9     3.302788327610670E-1    2.447312652255811E-1
 8.240000000000000E9     3.469568738102018E-1    2.229260145539871E-1
 8.250000000000000E9     3.607217639315196E-1    1.991473490017418E-1
 8.260000000000000E9     3.713613340346043E-1    1.732470626349591E-1
 8.270000000000000E9     3.788674399238489E-1    1.451503785003095E-1
 8.280000000000000E9     3.833731803188530E-1    1.152002824692156E-1
 8.290000000000000E9     3.850041098426760E-1    8.369072182827791E-2
 8.300000000000000E9     3.839539788351493E-1    5.140421413013276E-2
 8.310000000000000E9     3.801863657968266E-1    1.914636212195434E-2
 8.320000000000000E9     3.737126895400008E-1   -1.235665136325462E-2
 8.330000000000000E9     3.643916693363918E-1   -4.240685934944532E-2
 8.340000000000000E9     3.519598116954725E-1   -7.053486436837948E-2
 8.350000000000000E9     3.361519746952252E-1   -9.623990221778707E-2
 8.360000000000000E9     3.167876171898968E-1   -1.194353284691927E-1
 8.370000000000000E9     2.940118917516140E-1   -1.400379002208835E-1
 8.380000000000000E9     2.680945762838589E-1   -1.580608811301265E-1
 8.390000000000000E9     2.396128609620983E-1   -1.735233927881414E-1
 8.400000000000000E9     2.092712784052157E-1   -1.862043149968217E-1
 8.410000000000000E9     1.779119847753478E-1   -1.960479099801507E-1
 8.420000000000000E9     1.463865649413626E-1   -2.026098482242629E-1
 8.430000000000000E9     1.154048444410468E-1   -2.054578128101339E-1
 8.440000000000000E9     8.559485581230268E-2   -2.043169228273961E-1
 8.450000000000000E9     5.741022514593976E-2   -1.988243583587120E-1
 8.460000000000000E9     3.102475718994814E-2   -1.888361207028721E-1
 8.470000000000000E9     6.475418828822558E-3   -1.746689690843952E-1
 8.480000000000000E9    -1.605687272683527E-2   -1.566567242812960E-1
 8.490000000000000E9    -3.648367577190860E-2   -1.355438237203998E-1
 8.500000000000000E9    -5.450610234719754E-2   -1.121593503331459E-1
 8.510000000000000E9    -6.961374519848355E-2   -8.725241032959065E-2
 8.520000000000000E9    -8.136579217724914E-2   -6.177030856368144E-2
 8.530000000000000E9    -8.935559291037860E-2   -3.660494960249341E-2
 8.540000000000000E9    -9.298834625660225E-2   -1.208729627253355E-2
 8.550000000000000E9    -9.211355384749663E-2    1.145352244705270E-2
 8.560000000000000E9    -8.669726941237746E-2    3.386961443562623E-2
 8.570000000000000E9    -7.691704290893414E-2    5.498993748529725E-2
 8.580000000000000E9    -6.339487650937387E-2    7.469644550976653E-2
 8.590000000000000E9    -4.675047852647911E-2    9.264736998656894E-2
 8.600000000000000E9    -2.798073427132896E-2    1.084842805973627E-1
 8.610000000000000E9    -7.863177622188243E-3    1.217342250294262E-1
 8.620000000000000E9     1.306068280357670E-2    1.318337497158890E-1
 8.630000000000000E9     3.422715773779651E-2    1.382523075079188E-1
 8.640000000000000E9     5.529243289221292E-2    1.404199338798462E-1
 8.650000000000000E9     7.610036375632885E-2    1.383123021400274E-1
 8.660000000000000E9     9.634262413706997E-2    1.318721125234069E-1
 8.670000000000000E9     1.160765268491515E-1    1.213656168401735E-1
 8.680000000000000E9     1.349652003517235E-1    1.072015521675777E-1
 8.690000000000000E9     1.525170060071814E-1    9.015463834890286E-2
 8.700000000000000E9     1.682407652994658E-1    7.082679350854496E-2
 8.710000000000000E9     1.815263146540606E-1    4.988505978137836E-2
 8.720000000000000E9     1.916778779744034E-1    2.759686482091672E-2
 8.730000000000000E9     1.980358292532380E-1    4.462939583245145E-3
 8.740000000000000E9     2.002003363402655E-1   -1.938365282789937E-2
 8.750000000000000E9     1.979814515455987E-1   -4.376363369106485E-2
 8.760000000000000E9     1.912930679087003E-1   -6.862333273989703E-2
 8.770000000000000E9     1.803953818149647E-1   -9.357832856511630E-2
 8.780000000000000E9     1.657682900614115E-1   -1.183410098982121E-1
 8.790000000000000E9     1.478427280103257E-1   -1.423059720364571E-1
 8.800000000000000E9     1.271251575976686E-1   -1.646626383270647E-1
 8.810000000000000E9     1.039526338505198E-1   -1.846870564503965E-1
 8.820000000000000E9     7.866232683924457E-2   -2.014905413511338E-1
 8.830000000000000E9     5.141036624923420E-2   -2.144446052807724E-1
 8.840000000000000E9     2.248035120660210E-2   -2.231425337277673E-1
 8.850000000000000E9    -8.144051947927769E-3   -2.273751193554299E-1
 8.860000000000000E9    -4.024916226805803E-2   -2.270660801642030E-1
 8.870000000000000E9    -7.346798512820302E-2   -2.223765172366783E-1
 8.880000000000000E9    -1.071595492101464E-1   -2.136082466174689E-1
 8.890000000000000E9    -1.405096091235746E-1   -2.012165660282526E-1
 8.900000000000000E9    -1.727990983933387E-1   -1.852686482203387E-1
 8.910000000000000E9    -2.030558508284871E-1   -1.660902258083118E-1
 8.920000000000000E9    -2.304824707240035E-1   -1.439261046480304E-1
 8.930000000000000E9    -2.544238237067882E-1   -1.187119277685667E-1
 8.940000000000000E9    -2.746279745821804E-1   -9.049222718092162E-2
 8.950000000000000E9    -2.907971553121401E-1   -5.945888577475270E-2
 8.960000000000000E9    -3.029081287847897E-1   -2.579165998837465E-2
 8.970000000000000E9    -3.111397899998959E-1    9.933635331615100E-3
 8.980000000000000E9    -3.156393301261151E-1    4.713600672100456E-2
 8.990000000000000E9    -3.165462468679814E-1    8.505942545697862E-2
 9.000000000000000E9    -3.137494403840316E-1    1.227559966159118E-1
 9.010000000000000E9    -3.076942110087912E-1    1.594419645360824E-1
 9.020000000000000E9    -2.980373587915202E-1    1.943570262438139E-1
 9.030000000000000E9    -2.845443316461148E-1    2.270579659502411E-1
 9.040000000000000E9    -2.672821062007138E-1    2.571130141267000E-1
 9.050000000000000E9    -2.463065294639454E-1    2.844921366270249E-1
 9.060000000000000E9    -2.217661857684891E-1    3.091004751442689E-1
 9.070000000000000E9    -1.939551187062208E-1    3.311031577755407E-1
 9.080000000000000E9    -1.635916632886864E-1    3.503524788111186E-1
 9.090000000000000E9    -1.312157122546036E-1    3.668658512740475E-1
 9.100000000000000E9    -9.754097522173591E-2    3.804293459165384E-1
 9.110000000000000E9    -6.335118100716006E-2    3.908157464971008E-1
 9.120000000000000E9    -2.921246044148633E-2    3.975472849593609E-1
 9.130000000000000E9     4.338012816239419E-3    4.004067626974108E-1
 9.140000000000000E9     3.710082667384272E-2    3.991958837894728E-1
 9.150000000000000E9     6.871747010391538E-2    3.937986946201795E-1
 9.160000000000000E9     9.920768876707503E-2    3.842457046346283E-1
 9.170000000000000E9     1.284640713643909E-1    3.708292492764357E-1
 9.180000000000000E9     1.564476658625404E-1    3.538673162064916E-1
 9.190000000000000E9     1.828074922183424E-1    3.338958897828704E-1
 9.200000000000000E9     2.071064051537953E-1    3.111165227868966E-1
 9.210000000000000E9     2.288651341629447E-1    2.863015323382511E-1
 9.220000000000000E9     2.475045942483435E-1    2.596836892845505E-1
 9.230000000000000E9     2.626424897501474E-1    2.315269036527513E-1
 9.240000000000000E9     2.736770566027745E-1    2.022400598445598E-1
 9.250000000000000E9     2.805266960538449E-1    1.719636068552756E-1
 9.260000000000000E9     2.829192665062829E-1    1.411242650983186E-1
 9.270000000000000E9     2.808436983718950E-1    1.099796899645722E-1
 9.280000000000000E9     2.746145772493566E-1    7.883899321180278E-2
 9.290000000000000E9     2.641720984733026E-1    4.800310067783031E-2
 9.300000000000000E9     2.496580453290562E-1    1.792361291118698E-2
 9.310000000000000E9     2.307763462991101E-1   -1.106200666762491E-2
 9.320000000000000E9     2.063803706614717E-1   -3.898877131981423E-2
 9.330000000000000E9     1.716536754286926E-1   -6.506223601509468E-2
 9.340000000000000E9     1.164599019704031E-1   -6.956749188649694E-2
 9.350000000000000E9     1.022598275839457E-1   -4.083124239426332E-2
 9.360000000000000E9     9.474025667380609E-2   -4.997168112223825E-2
 9.370000000000000E9     7.096485175407148E-2   -5.807789882523358E-2
 9.380000000000000E9     4.229170158139629E-2   -5.910524439593445E-2
 9.390000000000000E9     1.242198770706355E-2   -5.385420658962336E-2
 9.400000000000000E9    -1.683320436859683E-2   -4.318267903213616E-2
 9.410000000000000E9    -4.454781351490753E-2   -2.762925519208042E-2
 9.420000000000000E9    -6.967263313366008E-2   -7.628330004333158E-3
 9.430000000000000E9    -9.158681228176999E-2    1.635412399779871E-2
 9.440000000000000E9    -1.095593752203291E-1    4.372721778571923E-2
 9.450000000000000E9    -1.232531374761830E-1    7.376836977173383E-2
 9.460000000000000E9    -1.324637092854569E-1    1.059664627267300E-1
 9.470000000000000E9    -1.369080871404008E-1    1.394446830995436E-1
 9.480000000000000E9    -1.363621275460640E-1    1.736047483756107E-1
 9.490000000000000E9    -1.310274499033432E-1    2.076670647454121E-1
 9.500000000000000E9    -1.206288499463520E-1    2.408669012086981E-1
 9.510000000000000E9    -1.059758520671083E-1    2.727611070991283E-1
 9.520000000000000E9    -8.703674701825626E-2    3.025918932732198E-1
 9.530000000000000E9    -6.418319790136635E-2    3.298520500400218E-1
 9.540000000000000E9    -3.789774251980490E-2    3.543212900796335E-1
 9.550000000000000E9    -8.760535440670325E-3    3.756010416066666E-1
 9.560000000000000E9     2.253241175115491E-2    3.935956938339991E-1
 9.570000000000000E9     5.569244843634239E-2    4.079469827748300E-1
 9.580000000000000E9     9.017091746431072E-2    4.186239754209456E-1
 9.590000000000000E9     1.253862372495051E-1    4.253683692779342E-1
 9.600000000000000E9     1.610359278176041E-1    4.280606181315419E-1
 9.610000000000000E9     1.967854663616949E-1    4.267427199636448E-1
 9.620000000000000E9     2.323181385965749E-1    4.213638079633275E-1
 9.630000000000000E9     2.672254963378070E-1    4.120888232909615E-1
 9.640000000000000E9     3.012425137940372E-1    3.993809518369361E-1
 9.650000000000000E9     3.340535082549056E-1    3.833571268063988E-1
 9.660000000000000E9     3.652388064991640E-1    3.644560947066398E-1
 9.670000000000000E9     3.946424799338921E-1    3.430656787949218E-1
 9.680000000000000E9     4.218071870850648E-1    3.193683599081503E-1
 9.690000000000000E9     4.465367848431964E-1    2.936316628129369E-1
 9.700000000000000E9     4.685314169840422E-1    2.656301551709672E-1
 9.710000000000000E9     4.876409703570899E-1    2.356599143956047E-1
 9.720000000000000E9     5.036471051143074E-1    2.037402512855852E-1
 9.730000000000000E9     5.166023411291709E-1    1.701056918865137E-1
 9.740000000000000E9     5.263546274358772E-1    1.351159468753470E-1
 9.750000000000000E9     5.329971499403272E-1    9.902185189066165E-2
 9.760000000000000E9     5.366332237023564E-1    6.226837310583955E-2
 9.770000000000000E9     5.372669558915739E-1    2.545122149749988E-2
 9.780000000000000E9     5.348289461895183E-1   -1.116142961655697E-2
 9.790000000000000E9     5.291680559165366E-1   -4.707414406850818E-2
 9.800000000000000E9     5.201993288001793E-1   -8.205747094169584E-2
 9.810000000000000E9     5.076687782960253E-1   -1.160179491528492E-1
 9.820000000000000E9     4.913824184020148E-1   -1.486669635570441E-1
 9.830000000000000E9     4.714634447141302E-1   -1.800172961951106E-1
 9.840000000000000E9     4.478911466539531E-1   -2.097318427862702E-1
 9.850000000000000E9     4.209613034903681E-1   -2.374080008841275E-1
 9.860000000000000E9     3.911726291251670E-1   -2.629202072976713E-1
 9.870000000000000E9     3.589242165062611E-1   -2.856905891124206E-1
 9.880000000000000E9     3.247439379280057E-1   -3.051999021369695E-1
 9.890000000000000E9     2.890707397501369E-1   -3.209425282553010E-1
 9.900000000000000E9     2.519869169405354E-1   -3.324100925909088E-1
 9.910000000000000E9     2.139325376015495E-1   -3.391424530005770E-1
 9.920000000000000E9     1.750045869290828E-1   -3.407868634089766E-1
 9.930000000000000E9     1.354243069697591E-1   -3.372837157630067E-1
 9.940000000000000E9     9.573245423143446E-2   -3.284812219424694E-1
 9.950000000000000E9     5.647762996684751E-2   -3.145879684268318E-1
 9.960000000000000E9     1.834568363435714E-2   -2.958246445953625E-1
 9.970000000000000E9    -1.760665604394648E-2   -2.726912945331514E-1
 9.980000000000000E9    -5.042998790183262E-2   -2.454562858014353E-1
 9.990000000000000E9    -7.907051878958754E-2   -2.146113488529197E-1
 1.000000000000000E+10  -1.025669129036635E-1   -1.803126263317564E-1
 1.001000000000000E+10  -1.205931888407335E-1   -1.431707969116961E-1
 1.002000000000000E+10  -1.323050311409363E-1   -1.033946474865803E-1
 1.003000000000000E+10  -1.376440724694299E-1   -6.154735137201448E-2
 1.004000000000000E+10  -1.367542567400985E-1   -1.836516820081896E-2
 1.005000000000000E+10  -1.298718165515964E-1    2.525245703195974E-2
 1.006000000000000E+10  -1.172101621339499E-1    6.795469328005348E-2
 1.007000000000000E+10  -9.932771508736796E-2    1.085261244459251E-1
 1.008000000000000E+10  -7.697614474915394E-2    1.459791336262679E-1
 1.009000000000000E+10  -5.016148724215266E-2    1.791042319435665E-1
 1.010000000000000E+10  -1.930173502732745E-2    2.070632191609272E-1
 1.011000000000000E+10   1.520971596614545E-2    2.293511985318447E-1
 1.012000000000000E+10   5.297889770078618E-2    2.456421384901045E-1
 1.013000000000000E+10   9.349725056188718E-2    2.560433131786086E-1
 1.014000000000000E+10   1.359501297075181E-1    2.608622703883299E-1
 1.015000000000000E+10   1.795345024338931E-1    2.604899724439522E-1
 1.016000000000000E+10   2.231005585905206E-1    2.551425003490486E-1
 1.017000000000000E+10   2.654887500983343E-1    2.454637058796183E-1
 1.018000000000000E+10   3.056192978005844E-1    2.317501679667433E-1
 1.019000000000000E+10   3.427812201117895E-1    2.139380349968805E-1
 1.020000000000000E+10   3.762149456240769E-1    1.922193559191905E-1
 1.021000000000000E+10   4.057693650771229E-1    1.664428968005215E-1
 1.022000000000000E+10   4.313900588479065E-1    1.366732782205566E-1
 1.023000000000000E+10   4.531471055407663E-1    1.030594761321850E-1
 1.024000000000000E+10   4.711512422717273E-1    6.598948221483207E-2
 1.025000000000000E+10   4.858838618143456E-1    2.618547376578643E-2
 1.026000000000000E+10   4.971109728194488E-1   -1.544492381679322E-2
 1.027000000000000E+10   5.050794791316554E-1   -5.776452032382753E-2
 1.028000000000000E+10   5.095782643034097E-1   -9.992105246108358E-2
 1.029000000000000E+10   5.104173414724561E-1   -1.410914971609734E-1
 1.030000000000000E+10   5.071816297029564E-1   -1.808796647710657E-1
 1.031000000000000E+10   4.995118430388343E-1   -2.192433545841489E-1
 1.032000000000000E+10   4.872882315055989E-1   -2.562571279059874E-1
 1.033000000000000E+10   4.703354342636211E-1   -2.920401309714844E-1
 1.034000000000000E+10   4.490461804085172E-1   -3.265981846221276E-1
 1.035000000000000E+10   4.236819620227213E-1   -3.600164359217705E-1
 1.036000000000000E+10   3.947772518739472E-1   -3.922544171482473E-1
 1.037000000000000E+10   3.630635447701848E-1   -4.227934513253240E-1
 1.038000000000000E+10   3.291385371789539E-1   -4.510612526660363E-1
 1.039000000000000E+10   2.936297466827886E-1   -4.762319634317242E-1
 1.040000000000000E+10   2.568431746830427E-1   -4.977117296992985E-1
 1.041000000000000E+10   2.186834046888220E-1   -5.151404908342023E-1
 1.042000000000000E+10   1.791061622045273E-1   -5.279044422579874E-1
 1.043000000000000E+10   1.378775695362826E-1   -5.359887808296254E-1
 1.044000000000000E+10   9.477229203985015E-2   -5.394575351983649E-1
 1.045000000000000E+10   5.006859893109188E-2   -5.384024636750762E-1
 1.046000000000000E+10   4.031607197918710E-3   -5.332057408374283E-1
 1.047000000000000E+10  -4.266746328662161E-2   -5.240076644093907E-1
 1.048000000000000E+10  -8.903937256869493E-2   -5.109759114766178E-1
 1.049000000000000E+10  -1.342034750908138E-1   -4.941779209356031E-1
 1.050000000000000E+10  -1.770276750603141E-1   -4.734777086710472E-1
 1.051000000000000E+10  -2.169633110823697E-1   -4.487504612799600E-1
 1.052000000000000E+10  -2.532529019214056E-1   -4.197227628111237E-1
 1.053000000000000E+10  -2.857484592568184E-1   -3.860883085929565E-1
 1.054000000000000E+10  -3.142162120631243E-1   -3.478056225531292E-1
 1.055000000000000E+10  -3.387237558652949E-1   -3.049338763302661E-1
 1.056000000000000E+10  -3.591111919122493E-1   -2.579992139051076E-1
 1.057000000000000E+10  -3.753067308470505E-1   -2.079329866879980E-1
 1.058000000000000E+10  -3.868599560736253E-1   -1.556993625030642E-1
 1.059000000000000E+10  -3.930609956294636E-1   -1.023791022180083E-1
 1.060000000000000E+10  -3.936360887550800E-1   -4.936489545841553E-2
 1.061000000000000E+10  -3.878332627465577E-1    2.647019499223569E-3
 1.062000000000000E+10  -3.752690482087952E-1    5.269171364769779E-2
 1.063000000000000E+10  -3.555575966198725E-1    1.003935920904054E-1
 1.064000000000000E+10  -3.287038918916624E-1    1.451586980446905E-1
 1.065000000000000E+10  -2.951681166920214E-1    1.870390525745120E-1
 1.066000000000000E+10  -2.555928886193277E-1    2.252338298713469E-1
 1.067000000000000E+10  -2.108151162483663E-1    2.594614273872983E-1
 1.068000000000000E+10  -1.620076299321674E-1    2.888466364958284E-1
 1.069000000000000E+10  -1.103751804009845E-1    3.125484000057236E-1
 1.070000000000000E+10  -5.720168862235973E-2    3.297106761230483E-1
 1.071000000000000E+10  -3.634347593685703E-3    3.395587765436504E-1
 1.072000000000000E+10   4.952246222580683E-2    3.415954461132669E-1
 1.073000000000000E+10   1.018442898805653E-1    3.356019390202785E-1
 1.074000000000000E+10   1.528520301973441E-1    3.217459493664981E-1
 1.075000000000000E+10   2.019950939795838E-1    3.003574236935646E-1
 1.076000000000000E+10   2.489085198303990E-1    2.721591429223308E-1
 1.077000000000000E+10   2.929183282003964E-1    2.379552931148959E-1
 1.078000000000000E+10   3.331874996473472E-1    1.989457400509298E-1
 1.079000000000000E+10   3.685624268414432E-1    1.561582972517774E-1
 1.080000000000000E+10   3.983551426013034E-1    1.105451920185424E-1
 1.081000000000000E+10   4.216597515541600E-1    6.278795283087621E-2
 1.082000000000000E+10   4.379290751746428E-1    1.370877041778890E-2
 1.083000000000000E+10   4.470929578096754E-1   -3.655239207026213E-2
 1.084000000000000E+10   4.490428574074193E-1   -8.749747961031709E-2
 1.085000000000000E+10   4.442136613245166E-1   -1.389375449631650E-1
 1.086000000000000E+10   4.329144665722814E-1   -1.906038180092785E-1
 1.087000000000000E+10   4.157423428532807E-1   -2.416837893147887E-1
 1.088000000000000E+10   3.934749310026563E-1   -2.908771704610303E-1
 1.089000000000000E+10   3.665784534078371E-1   -3.377034734609097E-1
 1.090000000000000E+10   3.352392135559488E-1   -3.809893300706528E-1
 1.091000000000000E+10   2.999463005070328E-1   -4.198401832194579E-1
 1.092000000000000E+10   2.610878785091884E-1   -4.535442243707338E-1
 1.093000000000000E+10   2.189971641254609E-1   -4.817296637878075E-1
 1.094000000000000E+10   1.735271396021940E-1   -5.044920681362809E-1
 1.095000000000000E+10   1.251362995648575E-1   -5.218986545264346E-1
 1.096000000000000E+10   7.385977238500781E-2   -5.337970571375495E-1
 1.097000000000000E+10   2.040515894954982E-2   -5.408565138563949E-1
 1.098000000000000E+10  -3.449444495943414E-2   -5.425420835220026E-1
 1.099000000000000E+10  -8.966605246628824E-2   -5.390907213341714E-1
 1.100000000000000E+10  -1.442423411398344E-1   -5.304433418486196E-1
 1.101000000000000E+10  -1.969743558769428E-1   -5.165460951921008E-1
 1.102000000000000E+10  -2.473872174715330E-1   -4.970620947052134E-1
 1.103000000000000E+10  -2.947891506415414E-1   -4.720335996415110E-1
 1.104000000000000E+10  -3.389362078311184E-1   -4.415477277929862E-1
 1.105000000000000E+10  -3.795327178891031E-1   -4.058369664434323E-1
 1.106000000000000E+10  -4.166338983383676E-1   -3.653462392692858E-1
 1.107000000000000E+10  -4.500023252204977E-1   -3.202321606268334E-1
 1.108000000000000E+10  -4.793502656721144E-1   -2.710218255229792E-1
 1.109000000000000E+10  -5.041967208212749E-1   -2.184682551790557E-1
 1.110000000000000E+10  -5.239870072609906E-1   -1.632370334521761E-1
 1.111000000000000E+10  -5.380034695120941E-1   -1.062032940872168E-1
 1.112000000000000E+10  -5.456117771599636E-1   -4.818258392868761E-2
 1.113000000000000E+10  -5.466570443707051E-1    1.008185091883152E-2
 1.114000000000000E+10  -5.409691831714120E-1    6.810988182856659E-2
 1.115000000000000E+10  -5.285989266604406E-1    1.253222996678219E-1
 1.116000000000000E+10  -5.099033576440267E-1    1.814043488429262E-1
 1.117000000000000E+10  -4.849187094880494E-1    2.358180967470936E-1
 1.118000000000000E+10  -4.540932639342312E-1    2.879892070666824E-1
 1.119000000000000E+10  -4.178491301948287E-1    3.371935973753756E-1
 1.120000000000000E+10  -3.765642886825507E-1    3.824901611698563E-1
 1.121000000000000E+10  -3.307815792029871E-1    4.229977010490941E-1
 1.122000000000000E+10  -2.807841061918342E-1    4.580338298134236E-1
 1.123000000000000E+10  -2.272302780611604E-1    4.869644775905951E-1
 1.124000000000000E+10  -1.709496019764979E-1    5.093771122880834E-1
 1.125000000000000E+10  -1.122405965433393E-1    5.252628749737718E-1
 1.126000000000000E+10  -5.202856709911876E-2    5.344254859266199E-1
 1.127000000000000E+10   9.176846337559023E-3    5.371462646943970E-1
 1.128000000000000E+10   7.081762687065667E-2    5.333276844273727E-1
 1.129000000000000E+10   1.319939095643656E-1    5.232263367795936E-1
 1.130000000000000E+10   1.916674960930229E-1    5.067030301722149E-1
 1.131000000000000E+10   2.490253576186655E-1    4.839777771394864E-1
 1.132000000000000E+10   3.031474768583958E-1    4.552041515234660E-1
 1.133000000000000E+10   3.534096073726950E-1    4.206422979014893E-1
 1.134000000000000E+10   3.991813494374587E-1    3.809326574841130E-1
 1.135000000000000E+10   4.401038994340672E-1    3.364346468833789E-1
 1.136000000000000E+10   4.758319981015973E-1    2.876150031430684E-1
 1.137000000000000E+10   5.062353485776093E-1    2.352452832900468E-1
 1.138000000000000E+10   5.311940262610296E-1    1.800178006988511E-1
 1.139000000000000E+10   5.501797454449641E-1    1.222739325042439E-1
 1.140000000000000E+10   5.631000992916213E-1    6.284378335018206E-2
 1.141000000000000E+10   5.695873017258093E-1    2.340047180875201E-3
 1.142000000000000E+10   5.692015375367390E-1   -5.832917389288061E-2
 1.143000000000000E+10   5.620100572303620E-1   -1.186357391634297E-1
 1.144000000000000E+10   5.481170300584327E-1   -1.776860593319542E-1
 1.145000000000000E+10   5.277162936457308E-1   -2.348871938563283E-1
 1.146000000000000E+10   5.012626669460086E-1   -2.898229970465320E-1
 1.147000000000000E+10   4.690685340435403E-1   -3.418407266651690E-1
 1.148000000000000E+10   4.315501657418134E-1   -3.904297102663817E-1
 1.149000000000000E+10   3.890426991300941E-1   -4.350409340669714E-1
 1.150000000000000E+10   3.418100193328321E-1   -4.749362649928212E-1
 1.151000000000000E+10   2.902856154717110E-1   -5.095196283459263E-1
 1.152000000000000E+10   2.350468729099317E-1   -5.382665421521706E-1
 1.153000000000000E+10   1.766115261055948E-1   -5.606370366287873E-1
 1.154000000000000E+10   1.155428360596330E-1   -5.761414772034823E-1
 1.155000000000000E+10   5.278341443543864E-2   -5.846485832026900E-1
 1.156000000000000E+10  -1.085671857704336E-2   -5.861149180260455E-1
 1.157000000000000E+10  -7.478611883007807E-2   -5.807177990781838E-1
 1.158000000000000E+10  -1.379177739465135E-1   -5.683763272548286E-1
 1.159000000000000E+10  -1.995747807087546E-1   -5.490507632954109E-1
 1.160000000000000E+10  -2.592899691141967E-1   -5.226464726391810E-1
 1.161000000000000E+10  -3.159705769188536E-1   -4.893682341542412E-1
 1.162000000000000E+10  -3.688313137823654E-1   -4.489237924838324E-1
 1.163000000000000E+10  -4.170665240939010E-1   -4.018810299320241E-1
 1.164000000000000E+10  -4.598898353267384E-1   -3.485601747312723E-1
 1.165000000000000E+10  -4.968788297097412E-1   -2.901501925429748E-1
 1.166000000000000E+10  -5.269231415047906E-1   -2.275353706967566E-1
 1.167000000000000E+10  -5.500383760022038E-1   -1.615861430432408E-1
 1.168000000000000E+10  -5.655726290491374E-1   -9.350369308162763E-2
 1.169000000000000E+10  -5.729673701193090E-1   -2.394822156456625E-2
 1.170000000000000E+10  -5.721366303213732E-1    4.622482594472194E-2
 1.171000000000000E+10  -5.622561351167032E-1    1.156730572453623E-1
 1.172000000000000E+10  -5.435995535674638E-1    1.838315074023774E-1
 1.173000000000000E+10  -5.159995176389308E-1    2.498510071433859E-1
 1.174000000000000E+10  -4.798287171477267E-1    3.129360284032117E-1
 1.175000000000000E+10  -4.357762885261779E-1    3.718298647691945E-1
 1.176000000000000E+10  -3.849177503708259E-1    4.257431793122341E-1
 1.177000000000000E+10  -3.280236880018049E-1    4.736613116480768E-1
 1.178000000000000E+10  -2.662632093372351E-1    5.146998567154832E-1
 1.179000000000000E+10  -2.007693198096950E-1    5.479469295024314E-1
 1.180000000000000E+10  -1.323986497611067E-1    5.729462777401979E-1
 1.181000000000000E+10  -6.213657765163927E-2    5.890920556177897E-1
 1.182000000000000E+10   9.393688811981825E-3    5.961805159784105E-1
 1.183000000000000E+10   8.163335303065584E-2    5.941405573230301E-1
 1.184000000000000E+10   1.533181837213738E-1    5.830141973033824E-1
 1.185000000000000E+10   2.234698829128185E-1    5.636599198239929E-1
 1.186000000000000E+10   2.910736104342820E-1    5.366535344128731E-1
 1.187000000000000E+10   3.552865737875898E-1    5.026865842532879E-1
 1.188000000000000E+10   4.150649110133318E-1    4.624693060475095E-1
 1.189000000000000E+10   4.694532673827638E-1    4.167409905348426E-1
 1.190000000000000E+10   5.178038578514776E-1    3.658946959910909E-1
 1.191000000000000E+10   5.594513601815295E-1    3.103653721180029E-1
 1.192000000000000E+10   5.940501256329398E-1    2.507387848800172E-1
 1.193000000000000E+10   6.214147593837467E-1    1.874474414914113E-1
 1.194000000000000E+10   6.414385422322514E-1    1.211240791482830E-1
 1.195000000000000E+10   6.545641407718300E-1    5.288487768018810E-2
 1.196000000000000E+10   6.608645364054436E-1   -1.634489100462727E-2
 1.197000000000000E+10   6.608118843999252E-1   -8.547975482040637E-2
 1.198000000000000E+10   6.542974762332900E-1   -1.533946013524388E-1
 1.199000000000000E+10   6.418291128058669E-1   -2.193295985482197E-1
 1.200000000000000E+10   6.234264657939083E-1   -2.822862295460864E-1
 1.201000000000000E+10   5.987556150629016E-1   -3.420075085412467E-1
 1.202000000000000E+10   5.681227958045771E-1   -3.982004493012239E-1
 1.203000000000000E+10   5.314511822668400E-1   -4.506800411492471E-1
 1.204000000000000E+10   4.888761796478669E-1   -4.992764288179860E-1
 1.205000000000000E+10   4.409030729346580E-1   -5.440707965274743E-1
 1.206000000000000E+10   3.882312400300890E-1   -5.848570711318491E-1
 1.207000000000000E+10   3.317138569448733E-1   -6.211384727378676E-1
 1.208000000000000E+10   2.723406343014316E-1   -6.525957491725982E-1
 1.209000000000000E+10   2.109544708424334E-1   -6.786737461513446E-1
 1.210000000000000E+10   1.482940690875047E-1   -6.990150544315495E-1
 1.211000000000000E+10   8.474791984142747E-2   -7.130162981448805E-1
 1.212000000000000E+10   2.060344917402520E-2   -7.203293661009764E-1
 1.213000000000000E+10  -4.404454734488120E-2   -7.207449907865783E-1
 1.214000000000000E+10  -1.090779706278391E-1   -7.140579843188239E-1
 1.215000000000000E+10  -1.742464864131427E-1   -7.006315033880731E-1
 1.216000000000000E+10  -2.391373153661943E-1   -6.806895996222879E-1
 1.217000000000000E+10  -3.029652385793886E-1   -6.546161794599603E-1
 1.218000000000000E+10  -3.650833879844809E-1   -6.228065179361357E-1
 1.219000000000000E+10  -4.243552029749031E-1   -5.855911519986277E-1
 1.220000000000000E+10  -4.798245477851463E-1   -5.431924700543689E-1
 1.221000000000000E+10  -5.304631389181729E-1   -4.958369046096960E-1
 1.222000000000000E+10  -5.757730538330945E-1   -4.432691964093182E-1
 1.223000000000000E+10  -6.149117408038302E-1   -3.857049520311760E-1
 1.224000000000000E+10  -6.480207577599069E-1   -3.231144217507638E-1
 1.225000000000000E+10  -6.744715276857661E-1   -2.555243100788285E-1
 1.226000000000000E+10  -6.942718953223104E-1   -1.835672452691902E-1
 1.227000000000000E+10  -7.069693030332913E-1   -1.083952140949182E-1
 1.228000000000000E+10  -7.125056823504780E-1   -3.097881781935982E-2
 1.229000000000000E+10  -7.105672162823077E-1    4.744607582258752E-2
 1.230000000000000E+10  -7.008688457313649E-1    1.251351102250715E-1
 1.231000000000000E+10  -6.827845201556527E-1    2.012290146034339E-1
 1.232000000000000E+10  -6.560732349063204E-1    2.746256741990049E-1
 1.233000000000000E+10  -6.205169933335031E-1    3.441071956831222E-1
 1.234000000000000E+10  -5.757704168850691E-1    4.096126761788447E-1
 1.235000000000000E+10  -5.218780957469774E-1    4.701792189675891E-1
 1.236000000000000E+10  -4.595817805671742E-1    5.253140672396074E-1
 1.237000000000000E+10  -3.892799969594827E-1    5.739902021779727E-1
 1.238000000000000E+10  -3.127959507252570E-1    6.153694779195663E-1
 1.239000000000000E+10  -2.310708355365215E-1    6.481616955446489E-1
 1.240000000000000E+10  -1.462491973380949E-1    6.716795917976864E-1
 1.241000000000000E+10  -5.988635850021903E-2    6.847184940393162E-1
 1.242000000000000E+10   2.665455593721387E-2    6.864742662732480E-1
 1.243000000000000E+10   1.122346289339737E-1    6.765435090240357E-1
 1.244000000000000E+10   1.959038342452054E-1    6.550965748783234E-1
 1.245000000000000E+10   2.765961672176033E-1    6.221719513155549E-1
 1.246000000000000E+10   3.533922307839554E-1    5.781958626425662E-1
 1.247000000000000E+10   4.250252852151540E-1    5.247355817738057E-1
 1.248000000000000E+10   4.902848544512446E-1    4.625987928272874E-1
 1.249000000000000E+10   5.478795404163603E-1    3.934026564147050E-1
 1.250000000000000E+10   5.961699904264125E-1    3.189554510905000E-1
