#  HZ   S   RI   R     50.00 
! Rohde & Schwarz Vector Network Analyzer 
! Rohde-Schwarz,ZNA43-4Port,1332450044101932,2.92
! Created: UTC 6/9/2026, 6:27:12 AM
! freq[Hz]                re:S11                  im:S11
 8.000000000000000E9     8.833604932523362E-2    7.208964947760307E-1
 8.010000000000000E9     5.498945737672787E-1    4.798015186752162E-1
 8.020000000000000E9     7.334720024277401E-1   -3.838007085131278E-3
 8.030000000000000E9     5.531008225151262E-1   -4.820743399018674E-1
 8.040000000000000E9     1.031167707097616E-1   -7.216936528677161E-1
 8.050000000000000E9    -3.965459760589358E-1   -6.028705354326874E-1
 8.060000000000000E9    -6.981526071998081E-1   -1.970719008843161E-1
 8.070000000000000E9    -6.615940503056144E-1    3.029757123103190E-1
 8.080000000000000E9    -3.181127662416360E-1    6.554031580269016E-1
 8.090000000000000E9     1.589983978359301E-1    7.140608283760298E-1
 8.100000000000000E9     5.652244638116808E-1    4.750868595396789E-1
 8.110000000000000E9     7.391003139859740E-1    4.865711105104411E-2
 8.120000000000000E9     6.264295693573365E-1   -3.956099684564055E-1
 8.130000000000000E9     2.745665967036984E-1   -6.871720694486648E-1
 8.140000000000000E9    -1.783192025960643E-1   -7.165612892935106E-1
 8.150000000000000E9    -5.590009303981917E-1   -4.791981129437352E-1
 8.160000000000000E9    -7.278568185808273E-1   -5.819756660570546E-2
 8.170000000000000E9    -6.286395134745886E-1    3.766117812053955E-1
 8.180000000000000E9    -3.075056415334196E-1    6.739824720745277E-1
 8.190000000000000E9     1.189345612076850E-1    7.381685071158199E-1
 8.200000000000000E9     5.046310676828836E-1    5.535890430695859E-1
 8.210000000000000E9     7.308048518467606E-1    1.865792518980477E-1
 8.220000000000000E9     7.181725854136872E-1   -2.400408829112711E-1
 8.230000000000000E9     4.731650465453858E-1   -5.874250087355953E-1
 8.240000000000000E9     7.468756137233094E-2   -7.429016041983187E-1
 8.250000000000000E9    -3.499060264808124E-1   -6.516723137226277E-1
 8.260000000000000E9    -6.527999772617569E-1   -3.501056272809536E-1
 8.270000000000000E9    -7.390806655407018E-1    7.286547193962684E-2
 8.280000000000000E9    -5.730481904057773E-1    4.738222690799979E-1
 8.290000000000000E9    -2.139841664285018E-1    7.129383215762121E-1
 8.300000000000000E9     2.114429033139931E-1    7.169874435239461E-1
 8.310000000000000E9     5.629781855960283E-1    4.925974814203860E-1
 8.320000000000000E9     7.361050382186670E-1    1.157676187593301E-1
 8.330000000000000E9     6.814555019573288E-1   -2.877937315628312E-1
 8.340000000000000E9     4.252124379363265E-1   -6.128751478397464E-1
 8.350000000000000E9     1.984374419306292E-2   -7.446528795000098E-1
 8.360000000000000E9    -3.969527728218476E-1   -6.207254194484140E-1
 8.370000000000000E9    -6.754812977029144E-1   -2.821333788562131E-1
 8.380000000000000E9    -7.169737473975573E-1    1.526251063503083E-1
 8.390000000000000E9    -5.105936230167946E-1    5.327691888496053E-1
 8.400000000000000E9    -1.304995522240720E-1    7.309691683453594E-1
 8.410000000000000E9     3.001531993074207E-1    6.855623701228449E-1
 8.420000000000000E9     6.336584916989686E-1    4.144929443899523E-1
 8.430000000000000E9     7.622625775984953E-1    5.963018777124334E-3
 8.440000000000000E9     6.424175715704719E-1   -4.063234353907430E-1
 8.450000000000000E9     3.097867701147927E-1   -6.854518452813144E-1
 8.460000000000000E9    -1.243183327484445E-1   -7.357921396422726E-1
 8.470000000000000E9    -5.137818339874638E-1   -5.317592043917952E-1
 8.480000000000000E9    -7.201236983652790E-1   -1.388462884034093E-1
 8.490000000000000E9    -6.634952408820444E-1    3.048916743969801E-1
 8.500000000000000E9    -3.619231394413975E-1    6.359690510796351E-1
 8.510000000000000E9     6.701577787991427E-2    7.342613414055642E-1
 8.520000000000000E9     4.717642258547475E-1    5.693814100470513E-1
 8.530000000000000E9     7.111093548329942E-1    2.074377150467410E-1
 8.540000000000000E9     7.066541600510475E-1   -2.268638997653776E-1
 8.550000000000000E9     4.547655625616749E-1   -5.855846177682105E-1
 8.560000000000000E9     3.798536238134516E-2   -7.318645598790855E-1
 8.570000000000000E9    -3.944251066366121E-1   -6.079946301243867E-1
 8.580000000000000E9    -6.737244263334142E-1   -2.535790556177460E-1
 8.590000000000000E9    -6.925935266699270E-1    1.929234252676946E-1
 8.600000000000000E9    -4.504832687284978E-1    5.623988621503118E-1
 8.610000000000000E9    -3.363482288233443E-2    7.247744287673823E-1
 8.620000000000000E9     3.948898209644585E-1    6.204616131519334E-1
 8.630000000000000E9     6.827325111522224E-1    2.925781950319414E-1
 8.640000000000000E9     7.292865902283865E-1   -1.387899211315087E-1
 8.650000000000000E9     5.203017506120469E-1   -5.193773750802727E-1
 8.660000000000000E9     1.334160448825251E-1   -7.179008524438790E-1
 8.670000000000000E9    -2.966818416246402E-1   -6.591803673507485E-1
 8.680000000000000E9    -6.169242417030621E-1   -3.637549958347080E-1
 8.690000000000000E9    -7.104063904983650E-1    6.547936110993591E-2
 8.700000000000000E9    -5.382329548588225E-1    4.730982094256080E-1
 8.710000000000000E9    -1.675159818293756E-1    7.032687246058471E-1
 8.720000000000000E9     2.679825273521313E-1    6.773556883271751E-1
 8.730000000000000E9     6.084504819652358E-1    4.081550083382633E-1
 8.740000000000000E9     7.359732136682128E-1   -3.770817327803817E-3
 8.750000000000000E9     6.102707359473035E-1   -4.149877404716956E-1
 8.760000000000000E9     2.730296937555138E-1   -6.785832531650143E-1
 8.770000000000000E9    -1.598250271675897E-1   -7.096351118211437E-1
 8.780000000000000E9    -5.383728144619244E-1   -4.881726268711633E-1
 8.790000000000000E9    -7.220722593149215E-1   -9.004760375276127E-2
 8.800000000000000E9    -6.452640922271194E-1    3.375260710526298E-1
 8.810000000000000E9    -3.357437462506195E-1    6.488993474406837E-1
 8.820000000000000E9     8.984457817026133E-2    7.325675794517772E-1
 8.830000000000000E9     4.866630550300504E-1    5.659616564708637E-1
 8.840000000000000E9     7.214375006810616E-1    2.054614268122715E-1
 8.850000000000000E9     7.109110167413515E-1   -2.263327730706972E-1
 8.860000000000000E9     4.625324574292208E-1   -5.840509665459529E-1
 8.870000000000000E9     5.292382021348758E-2   -7.380211954017324E-1
 8.880000000000000E9    -3.734567718050553E-1   -6.297957095921400E-1
 8.890000000000000E9    -6.627308683872312E-1   -2.945821401493183E-1
 8.900000000000000E9    -7.068145470843953E-1    1.485773246436443E-1
 8.910000000000000E9    -4.903667033370124E-1    5.307247983407847E-1
 8.920000000000000E9    -9.500724445294773E-2    7.178484111594655E-1
 8.930000000000000E9     3.340128807867210E-1    6.449926433965447E-1
 8.940000000000000E9     6.434048483671746E-1    3.424309656072940E-1
 8.950000000000000E9     7.264362828989812E-1   -8.098274876099330E-2
 8.960000000000000E9     5.470964446988698E-1   -4.728678629837479E-1
 8.970000000000000E9     1.726070647190132E-1   -6.947241869240735E-1
 8.980000000000000E9    -2.648352914638392E-1   -6.610728301118266E-1
 8.990000000000000E9    -6.016653258198489E-1   -3.780123877146750E-1
 9.000000000000000E9    -7.060517769470275E-1    4.790488727771852E-2
 9.010000000000000E9    -5.380222841829279E-1    4.582534719808007E-1
 9.020000000000000E9    -1.673843296634719E-1    6.904921518540772E-1
 9.030000000000000E9     2.623515947460495E-1    6.657409560402684E-1
 9.040000000000000E9     5.965619521899624E-1    3.993016481372585E-1
 9.050000000000000E9     7.150580118567009E-1   -1.352216055485441E-2
 9.060000000000000E9     5.787457914451275E-1   -4.226614742081886E-1
 9.070000000000000E9     2.261531408309918E-1   -6.768614927338301E-1
 9.080000000000000E9    -2.103513827590506E-1   -6.746889515031737E-1
 9.090000000000000E9    -5.630032173591157E-1   -4.165988578976216E-1
 9.100000000000000E9    -6.996274503290107E-1   -6.015223651164624E-4
 9.110000000000000E9    -5.686088897061201E-1    4.122818224650925E-1
 9.120000000000000E9    -2.225841738406140E-1    6.703592263851370E-1
 9.130000000000000E9     2.079045669399457E-1    6.799424242417287E-1
 9.140000000000000E9     5.638629807263386E-1    4.404391356843405E-1
 9.150000000000000E9     7.178370390421143E-1    4.209876862351513E-2
 9.160000000000000E9     6.110046167362655E-1   -3.694279976480795E-1
 9.170000000000000E9     2.874260172910487E-1   -6.479846416385689E-1
 9.180000000000000E9    -1.370870380612562E-1   -6.941509244872907E-1
 9.190000000000000E9    -5.109756525603681E-1   -4.916043105340936E-1
 9.200000000000000E9    -7.004235759729049E-1   -1.142362139225469E-1
 9.210000000000000E9    -6.424706102659982E-1    3.074456477452949E-1
 9.220000000000000E9    -3.598840220306668E-1    6.217337693937521E-1
 9.230000000000000E9     4.621842201051399E-2    7.235812004936583E-1
 9.240000000000000E9     4.375530354879306E-1    5.836474516982565E-1
 9.250000000000000E9     6.854736897873854E-1    2.510068402489188E-1
 9.260000000000000E9     7.126270132620925E-1   -1.639622611021924E-1
 9.270000000000000E9     5.064798955998161E-1   -5.255353614201306E-1
 9.280000000000000E9     1.336423095041183E-1   -7.126233491763875E-1
 9.290000000000000E9    -2.803100593591619E-1   -6.616223486420988E-1
 9.300000000000000E9    -5.970524729952840E-1   -3.919928254169959E-1
 9.310000000000000E9    -7.124510008104936E-1    1.221472044474999E-3
 9.320000000000000E9    -5.965700569975874E-1    3.901382967929332E-1
 9.330000000000000E9    -2.901743188206243E-1    6.546828501841261E-1
 9.340000000000000E9     1.110602216225854E-1    7.125362171903744E-1
 9.350000000000000E9     4.795746950667896E-1    5.446238559103673E-1
 9.360000000000000E9     6.946315470078231E-1    2.103871141851120E-1
 9.370000000000000E9     6.961455298049298E-1   -1.907744589024104E-1
 9.380000000000000E9     4.830481281535649E-1   -5.334751506796621E-1
 9.390000000000000E9     1.208025225248392E-1   -7.111963264495360E-1
 9.400000000000000E9    -2.783457478524027E-1   -6.671286469100470E-1
 9.410000000000000E9    -5.924221239256008E-1   -4.101252750941779E-1
 9.420000000000000E9    -7.203950927493756E-1   -2.483380900129758E-2
 9.430000000000000E9    -6.225195747444012E-1    3.676267683805461E-1
 9.440000000000000E9    -3.323495245436655E-1    6.449962982040762E-1
 9.450000000000000E9     5.769870055755744E-2    7.250093645003657E-1
 9.460000000000000E9     4.348818838731660E-1    5.853865046192706E-1
 9.470000000000000E9     6.802491956502740E-1    2.688514851129664E-1
 9.480000000000000E9     7.210693194239184E-1   -1.299421606990004E-1
 9.490000000000000E9     5.424781657259586E-1   -4.916783121447380E-1
 9.500000000000000E9     1.953762921971665E-1   -7.034732017466760E-1
 9.510000000000000E9    -2.158302592739537E-1   -7.001578638367089E-1
 9.520000000000000E9    -5.582889089912526E-1   -4.748434251972448E-1
 9.530000000000000E9    -7.238665883791364E-1   -1.016209821658940E-1
 9.540000000000000E9    -6.641837333688634E-1    3.024435857221603E-1
 9.550000000000000E9    -3.977211447719830E-1    6.150776021617025E-1
 9.560000000000000E9    -1.173779775469789E-2    7.356739357660098E-1
 9.570000000000000E9     3.820842736739620E-1    6.290864005790525E-1
 9.580000000000000E9     6.584006366506381E-1    3.233109230888453E-1
 9.590000000000000E9     7.255004911955988E-1   -8.643719832618671E-2
 9.600000000000000E9     5.593499739225715E-1   -4.694468750993366E-1
 9.610000000000000E9     2.077886555990235E-1   -6.967770104096068E-1
 9.620000000000000E9    -2.146975633883003E-1   -6.918510958449383E-1
 9.630000000000000E9    -5.652324909166779E-1   -4.517953694837301E-1
 9.640000000000000E9    -7.220118593089268E-1   -5.705107883841337E-2
 9.650000000000000E9    -6.318385527184439E-1    3.552520204448582E-1
 9.660000000000000E9    -3.251382049182066E-1    6.484234780128266E-1
 9.670000000000000E9     9.248666198251455E-2    7.206212379906265E-1
 9.680000000000000E9     4.789603184199954E-1    5.469488620336854E-1
 9.690000000000000E9     7.013823904442102E-1    1.840981368390066E-1
 9.700000000000000E9     6.767543377345474E-1   -2.450313649017279E-1
 9.710000000000000E9     4.065522341900609E-1   -5.906938978607176E-1
 9.720000000000000E9    -1.698088136626227E-2   -7.139663971377866E-1
 9.730000000000000E9    -4.320522029259760E-1   -5.617252735144628E-1
 9.740000000000000E9    -6.751733939114853E-1   -1.927043464657103E-1
 9.750000000000000E9    -6.533097135017296E-1    2.482827158085364E-1
 9.760000000000000E9    -3.798629789513590E-1    5.857243191695818E-1
 9.770000000000000E9     3.837016657308884E-2    6.961824594652460E-1
 9.780000000000000E9     4.431438142020361E-1    5.372122787727128E-1
 9.790000000000000E9     6.759485970063703E-1    1.657822408013147E-1
 9.800000000000000E9     6.404737097801241E-1   -2.732799409047341E-1
 9.810000000000000E9     3.447272160222742E-1   -5.990322913439093E-1
 9.820000000000000E9    -8.846895317375124E-2   -6.798129377652981E-1
 9.830000000000000E9    -4.821836084921418E-1   -4.834438135806414E-1
 9.840000000000000E9    -6.765881183403680E-1   -9.122434572188842E-2
 9.850000000000000E9    -5.950533714893913E-1    3.340639839617726E-1
 9.860000000000000E9    -2.769095794091543E-1    6.247169387776635E-1
 9.870000000000000E9     1.477251895221766E-1    6.701852118849722E-1
 9.880000000000000E9     5.142294113047080E-1    4.588738779182003E-1
 9.890000000000000E9     6.863889054765718E-1    7.506158795399837E-2
 9.900000000000000E9     6.015275473053162E-1   -3.367444544669824E-1
 9.910000000000000E9     2.937471171944744E-1   -6.269119443255603E-1
 9.920000000000000E9    -1.237322317042774E-1   -6.835058934744627E-1
 9.930000000000000E9    -4.942545345833008E-1   -4.872464111978000E-1
 9.940000000000000E9    -6.820315878962798E-1   -1.154413690669264E-1
 9.950000000000000E9    -6.256118258216783E-1    2.940927031821129E-1
 9.960000000000000E9    -3.532075433473830E-1    5.946374014145132E-1
 9.970000000000000E9     3.624328271766986E-2    6.901902533959091E-1
 9.980000000000000E9     4.119281476345141E-1    5.552306689172219E-1
 9.990000000000000E9     6.516275637235496E-1    2.361162977133945E-1
 1.000000000000000E+10   6.772514758368344E-1   -1.618275262012670E-1
 1.001000000000000E+10   4.804148448802608E-1   -5.023283785135825E-1
 1.002000000000000E+10   1.271165240371051E-1   -6.815037684478582E-1
 1.003000000000000E+10  -2.655119432385711E-1   -6.398760927869676E-1
 1.004000000000000E+10  -5.720002858159379E-1   -3.933557171332571E-1
 1.005000000000000E+10  -6.954459060264560E-1   -2.123114414788015E-2
 1.006000000000000E+10  -5.965538569054757E-1    3.573953698539730E-1
 1.007000000000000E+10  -3.104168759915760E-1    6.239580778024230E-1
 1.008000000000000E+10   7.201322686608289E-2    6.944640394547001E-1
 1.009000000000000E+10   4.295199796522735E-1    5.502080350648116E-1
 1.010000000000000E+10   6.538627431650025E-1    2.394667352486227E-1
 1.011000000000000E+10   6.818472198809126E-1   -1.475043018926726E-1
 1.012000000000000E+10   5.005246462260147E-1   -4.891151406402979E-1
 1.013000000000000E+10   1.646198249755414E-1   -6.808156417392968E-1
 1.014000000000000E+10  -2.222329499556104E-1   -6.615908594406764E-1
 1.015000000000000E+10  -5.379359073572048E-1   -4.372499229760815E-1
 1.016000000000000E+10  -6.889330016248865E-1   -8.234819787328820E-2
 1.017000000000000E+10  -6.262322531041502E-1    2.950234992323151E-1
 1.018000000000000E+10  -3.744881462619430E-1    5.795222840669331E-1
 1.019000000000000E+10  -1.150795075259880E-2    6.890633529758384E-1
 1.020000000000000E+10   3.563967843739331E-1    5.922234336225368E-1
 1.021000000000000E+10   6.158996177316082E-1    3.178330712223018E-1
 1.022000000000000E+10   6.916826594142924E-1   -5.542901300738495E-2
 1.023000000000000E+10   5.561823648551990E-1   -4.149282913114206E-1
 1.024000000000000E+10   2.484440958084213E-1   -6.481386862038638E-1
 1.025000000000000E+10  -1.367509221043935E-1   -6.817773252819710E-1
 1.026000000000000E+10  -4.752729029637442E-1   -4.990279876458794E-1
 1.027000000000000E+10  -6.646008237910725E-1   -1.648882808226453E-1
 1.028000000000000E+10  -6.476053917644626E-1    2.188779040220017E-1
 1.029000000000000E+10  -4.282129178219080E-1    5.337465694014885E-1
 1.030000000000000E+10  -7.561628416765200E-2    6.802367447319874E-1
 1.031000000000000E+10   3.039623475065351E-1    6.122295035375714E-1
 1.032000000000000E+10   5.879126528011784E-1    3.521644098723235E-1
 1.033000000000000E+10   6.887452712753979E-1   -1.825159894658847E-2
 1.034000000000000E+10   5.746941750931273E-1   -3.854475820663187E-1
 1.035000000000000E+10   2.769764350210342E-1   -6.333801836324308E-1
 1.036000000000000E+10  -1.113049891008270E-1   -6.844824575048090E-1
 1.037000000000000E+10  -4.652531265248009E-1   -5.152321992546871E-1
 1.038000000000000E+10  -6.676766854891999E-1   -1.798550961608335E-1
 1.039000000000000E+10  -6.529616158424322E-1    2.101484999247935E-1
 1.040000000000000E+10  -4.288311249422362E-1    5.284485955039029E-1
 1.041000000000000E+10  -7.177572140760202E-2    6.762483557104506E-1
 1.042000000000000E+10   3.079903321645150E-1    6.055594997096292E-1
 1.043000000000000E+10   5.896116529114462E-1    3.367913661719794E-1
 1.044000000000000E+10   6.778028576446279E-1   -4.702118132379340E-2
 1.045000000000000E+10   5.372715415779884E-1   -4.191526601570874E-1
 1.046000000000000E+10   2.113212566403874E-1   -6.471254742299486E-1
 1.047000000000000E+10  -1.894344897848390E-1   -6.503878181017266E-1
 1.048000000000000E+10  -5.231639362410314E-1   -4.268402538767638E-1
 1.049000000000000E+10  -6.738619596098289E-1   -5.486585913627678E-2
 1.050000000000000E+10  -5.895146476596153E-1    3.364523234510260E-1
 1.051000000000000E+10  -2.956690829146033E-1    6.086103802489150E-1
 1.052000000000000E+10   1.013866611446452E-1    6.706431172213803E-1
 1.053000000000000E+10   4.646513687697365E-1    4.989191019733820E-1
 1.054000000000000E+10   6.677739098921138E-1    1.530631472456429E-1
 1.055000000000000E+10   6.393970523359919E-1   -2.490043217085518E-1
 1.056000000000000E+10   3.822730674424198E-1   -5.713154282942392E-1
 1.057000000000000E+10  -1.701294792093640E-2   -6.902901758764263E-1
 1.058000000000000E+10  -4.157009279473174E-1   -5.530943428561779E-1
 1.059000000000000E+10  -6.585018939170896E-1   -2.050795655834140E-1
 1.060000000000000E+10  -6.502779870601478E-1    2.182633589991152E-1
 1.061000000000000E+10  -4.044763384482677E-1    5.582982867026792E-1
 1.062000000000000E+10  -1.177070710022953E-2    6.918900826480960E-1
 1.063000000000000E+10   3.848504849096704E-1    5.783613821456440E-1
 1.064000000000000E+10   6.487305588834396E-1    2.593439448967577E-1
 1.065000000000000E+10   6.860258488199813E-1   -1.568357126790846E-1
 1.066000000000000E+10   4.787761496414024E-1   -5.192836459815081E-1
 1.067000000000000E+10   9.318935148740877E-2   -6.981408284993379E-1
 1.068000000000000E+10  -3.295532075920563E-1   -6.185933846248192E-1
 1.069000000000000E+10  -6.286868445246050E-1   -3.068813748417441E-1
 1.070000000000000E+10  -6.910779375359299E-1    1.196958655836265E-1
 1.071000000000000E+10  -4.893207579560691E-1    4.984539648235212E-1
 1.072000000000000E+10  -1.100644347026131E-1    6.938033982342477E-1
 1.073000000000000E+10   3.088474362802580E-1    6.401971617754116E-1
 1.074000000000000E+10   6.200062574430693E-1    3.629007587819487E-1
 1.075000000000000E+10   7.205293394358394E-1   -3.681655202356416E-2
 1.076000000000000E+10   5.818158897832882E-1   -4.303124163681758E-1
 1.077000000000000E+10   2.506823627846728E-1   -6.805529457772281E-1
 1.078000000000000E+10  -1.649159599045218E-1   -7.056790252590240E-1
 1.079000000000000E+10  -5.264143358212112E-1   -4.915465704727006E-1
 1.080000000000000E+10  -7.040677374869313E-1   -1.075339473100167E-1
 1.081000000000000E+10  -6.409751439827553E-1    3.098646616164994E-1
 1.082000000000000E+10  -3.545693465159346E-1    6.150521893223391E-1
 1.083000000000000E+10   4.828473747386212E-2    7.066223872443903E-1
 1.084000000000000E+10   4.317430547177603E-1    5.633330031815681E-1
 1.085000000000000E+10   6.755839064942822E-1    2.350474938645123E-1
 1.086000000000000E+10   6.985788947988580E-1   -1.675279824431994E-1
 1.087000000000000E+10   4.963387437251468E-1   -5.192513759703964E-1
 1.088000000000000E+10   1.315236338451291E-1   -7.037219533909085E-1
 1.089000000000000E+10  -2.760997542556360E-1   -6.574730592838848E-1
 1.090000000000000E+10  -5.915473209251669E-1   -3.959125559530444E-1
 1.091000000000000E+10  -7.025522399337577E-1   -3.024627742679361E-3
 1.092000000000000E+10  -5.820366767025446E-1    3.862492488649450E-1
 1.093000000000000E+10  -2.715747300443192E-1    6.470254981978054E-1
 1.094000000000000E+10   1.276246068691678E-1    6.969972433372159E-1
 1.095000000000000E+10   4.857261662285864E-1    5.225353999695168E-1
 1.096000000000000E+10   6.951936880277508E-1    1.791014597454624E-1
 1.097000000000000E+10   6.868859750459478E-1   -2.221562274904537E-1
 1.098000000000000E+10   4.644031186250605E-1   -5.545941345309655E-1
 1.099000000000000E+10   9.723515762624672E-2   -7.141034292912439E-1
 1.100000000000000E+10  -3.001963286592603E-1   -6.473175065983406E-1
 1.101000000000000E+10  -6.044362168996430E-1   -3.775883479511890E-1
 1.102000000000000E+10  -7.112010637499159E-1    1.705956755031743E-2
 1.103000000000000E+10  -5.809013237658444E-1    4.045487874970040E-1
 1.104000000000000E+10  -2.608410885060489E-1    6.532773550133965E-1
 1.105000000000000E+10   1.379408191835018E-1    6.879999702423392E-1
 1.106000000000000E+10   4.876281711878341E-1    5.070183246712631E-1
 1.107000000000000E+10   6.835462046461006E-1    1.698103920869985E-1
 1.108000000000000E+10   6.690758658570646E-1   -2.213682501387555E-1
 1.109000000000000E+10   4.440188486289018E-1   -5.471788099991399E-1
 1.110000000000000E+10   7.443587181009297E-2   -7.001706501944009E-1
 1.111000000000000E+10  -3.156252537451696E-1   -6.201532704975563E-1
 1.112000000000000E+10  -5.991517264480239E-1   -3.343056755480074E-1
 1.113000000000000E+10  -6.784876388404404E-1    6.128557300839088E-2
 1.114000000000000E+10  -5.280001428906724E-1    4.333566031811789E-1
 1.115000000000000E+10  -1.998580201657270E-1    6.578192161829099E-1
 1.116000000000000E+10   1.968107472448488E-1    6.584388697627511E-1
 1.117000000000000E+10   5.289241733714403E-1    4.441322757074673E-1
 1.118000000000000E+10   6.892667112338371E-1    8.465102522875903E-2
 1.119000000000000E+10   6.260213860423807E-1   -3.025936351415837E-1
 1.120000000000000E+10   3.588161454533800E-1   -5.912575021590868E-1
 1.121000000000000E+10  -3.006253828451827E-2   -6.893235618851586E-1
 1.122000000000000E+10  -4.098139928793880E-1   -5.533144311665686E-1
 1.123000000000000E+10  -6.482470805671698E-1   -2.251060226322658E-1
 1.124000000000000E+10  -6.581433295482804E-1    1.809338359836246E-1
 1.125000000000000E+10  -4.381115926928050E-1    5.188019915037257E-1
 1.126000000000000E+10  -7.415037360225536E-2    6.803986323562057E-1
 1.127000000000000E+10   3.108793631212115E-1    6.121572997004490E-1
 1.128000000000000E+10   5.920379800628022E-1    3.481709044733013E-1
 1.129000000000000E+10   6.868193577333132E-1   -2.508557534734455E-2
 1.130000000000000E+10   5.644117567807977E-1   -3.944750279598271E-1
 1.131000000000000E+10   2.609948690206184E-1   -6.337331561473393E-1
 1.132000000000000E+10  -1.331755242668952E-1   -6.632518534905517E-1
 1.133000000000000E+10  -4.811863381977703E-1   -4.638615132712888E-1
 1.134000000000000E+10  -6.587855210856086E-1   -1.045704590386434E-1
 1.135000000000000E+10  -6.080086670313682E-1    2.880247631177873E-1
 1.136000000000000E+10  -3.411556382485699E-1    5.787549308131922E-1
 1.137000000000000E+10   3.695267184361511E-2    6.753764696544259E-1
 1.138000000000000E+10   4.037392402788887E-1    5.527424063868341E-1
 1.139000000000000E+10   6.440395694277485E-1    2.527124307124963E-1
 1.140000000000000E+10   6.825798593306214E-1   -1.287281117640091E-1
 1.141000000000000E+10   5.052408645940623E-1   -4.769629544407792E-1
 1.142000000000000E+10   1.640608191590630E-1   -6.725336021795016E-1
 1.143000000000000E+10  -2.307443298574065E-1   -6.473317441151285E-1
 1.144000000000000E+10  -5.471189583750170E-1   -4.050075265926514E-1
 1.145000000000000E+10  -6.740025574113938E-1   -2.458314317831490E-2
 1.146000000000000E+10  -5.734074095313565E-1    3.638636703881642E-1
 1.147000000000000E+10  -2.748217732405837E-1    6.270032640370494E-1
 1.148000000000000E+10   1.157451867990250E-1    6.783814408117280E-1
 1.149000000000000E+10   4.672691534116621E-1    5.085629924410472E-1
 1.150000000000000E+10   6.713044340917338E-1    1.772779017391273E-1
 1.151000000000000E+10   6.670748871298832E-1   -2.045607965231412E-1
 1.152000000000000E+10   4.550929554048356E-1   -5.257404992657757E-1
 1.153000000000000E+10   9.491930527411657E-2   -6.835047440655577E-1
 1.154000000000000E+10  -3.003326279106420E-1   -6.172772596206548E-1
 1.155000000000000E+10  -5.954482567838105E-1   -3.441340914827259E-1
 1.156000000000000E+10  -6.813175500309039E-1    4.753324567865151E-2
 1.157000000000000E+10  -5.377126769419458E-1    4.185138265304534E-1
 1.158000000000000E+10  -2.190359492935855E-1    6.496258905374031E-1
 1.159000000000000E+10   1.709456676657371E-1    6.726390242051489E-1
 1.160000000000000E+10   5.099495983210059E-1    4.823556174753284E-1
 1.161000000000000E+10   6.905854549405447E-1    1.380865478826755E-1
 1.162000000000000E+10   6.599285996899359E-1   -2.504211628634218E-1
 1.163000000000000E+10   4.241359006414639E-1   -5.631462217761528E-1
 1.164000000000000E+10   5.329362601258287E-2   -6.993302339150863E-1
 1.165000000000000E+10  -3.369280392070581E-1   -6.088341038207151E-1
 1.166000000000000E+10  -6.209152593901405E-1   -3.140800313549051E-1
 1.167000000000000E+10  -6.940712546926353E-1    8.931535805160162E-2
 1.168000000000000E+10  -5.276000635184480E-1    4.644397201939082E-1
 1.169000000000000E+10  -1.788942835270818E-1    6.800805549224260E-1
 1.170000000000000E+10   2.293854157610568E-1    6.646795615611534E-1
 1.171000000000000E+10   5.603000775272939E-1    4.381883386691792E-1
 1.172000000000000E+10   7.085254813228768E-1    6.910815793172580E-2
 1.173000000000000E+10   6.290622341465413E-1   -3.218378094571994E-1
 1.174000000000000E+10   3.455032438872812E-1   -6.096180570061029E-1
 1.175000000000000E+10  -5.466638173486692E-2   -6.969134970754702E-1
 1.176000000000000E+10  -4.350262074222981E-1   -5.455093586455395E-1
 1.177000000000000E+10  -6.659015444896107E-1   -2.000210853633345E-1
 1.178000000000000E+10  -6.600051453629801E-1    2.157269337783337E-1
 1.179000000000000E+10  -4.247342199116402E-1    5.531851966924934E-1
 1.180000000000000E+10  -4.742627345774338E-2    7.026567635401736E-1
 1.181000000000000E+10   3.466525497442249E-1    6.144003089038592E-1
 1.182000000000000E+10   6.282755596067818E-1    3.272827215411083E-1
 1.183000000000000E+10   7.065646089070232E-1   -6.780048764632696E-2
 1.184000000000000E+10   5.520021291058517E-1   -4.411201054164465E-1
 1.185000000000000E+10   2.135614836699886E-1   -6.650999717192717E-1
 1.186000000000000E+10  -2.041151465665908E-1   -6.594691286320694E-1
 1.187000000000000E+10  -5.439234202770084E-1   -4.169229920841341E-1
 1.188000000000000E+10  -6.816121935062812E-1   -2.404123771822832E-2
 1.189000000000000E+10  -5.666747096200793E-1    3.746454567156798E-1
 1.190000000000000E+10  -2.445465068789289E-1    6.326929885543874E-1
 1.191000000000000E+10   1.588919408221386E-1    6.673315032008946E-1
 1.192000000000000E+10   5.052303712920959E-1    4.702911539540160E-1
 1.193000000000000E+10   6.799507177262823E-1    1.161481216243381E-1
 1.194000000000000E+10   6.296502757776894E-1   -2.758164633002417E-1
 1.195000000000000E+10   3.700549719439286E-1   -5.784286346473109E-1
 1.196000000000000E+10  -1.025918205570566E-2   -6.826021975083975E-1
 1.197000000000000E+10  -3.878716014654646E-1   -5.549457930532297E-1
 1.198000000000000E+10  -6.300088279966917E-1   -2.342968523517499E-1
 1.199000000000000E+10  -6.492022064994090E-1    1.667037359111470E-1
 1.200000000000000E+10  -4.422363688905064E-1    5.061960894390936E-1
 1.201000000000000E+10  -8.275282457159482E-2    6.656471827700172E-1
 1.202000000000000E+10   3.012028514161308E-1    6.017478974661515E-1
 1.203000000000000E+10   5.863013667926839E-1    3.396903549474923E-1
 1.204000000000000E+10   6.803934356972029E-1   -3.608016675009691E-2
 1.205000000000000E+10   5.494765287700628E-1   -4.015780560462492E-1
 1.206000000000000E+10   2.310682096173005E-1   -6.388777662834826E-1
 1.207000000000000E+10  -1.656423388510662E-1   -6.585855416496115E-1
 1.208000000000000E+10  -5.031153709674127E-1   -4.543202783398694E-1
 1.209000000000000E+10  -6.676938371321742E-1   -9.815299559973725E-2
 1.210000000000000E+10  -6.053271641904877E-1    2.892778524226730E-1
 1.211000000000000E+10  -3.468154088917093E-1    5.810700214144726E-1
 1.212000000000000E+10   2.562650598228246E-2    6.812171745338942E-1
 1.213000000000000E+10   3.892617791477547E-1    5.599739632370926E-1
 1.214000000000000E+10   6.262545450017729E-1    2.597552138595883E-1
 1.215000000000000E+10   6.627218087424668E-1   -1.212153036992779E-1
 1.216000000000000E+10   4.903000389189333E-1   -4.571338252974830E-1
 1.217000000000000E+10   1.621443729012267E-1   -6.443215791016906E-1
 1.218000000000000E+10  -2.167082250953074E-1   -6.219702228619072E-1
 1.219000000000000E+10  -5.231729330251197E-1   -3.947730593988657E-1
 1.220000000000000E+10  -6.549894655180724E-1   -3.646269385073081E-2
 1.221000000000000E+10  -5.640801020002534E-1    3.329606471722447E-1
 1.222000000000000E+10  -2.854519810365568E-1    5.904636801342388E-1
 1.223000000000000E+10   8.536577176325050E-2    6.533911890941833E-1
 1.224000000000000E+10   4.277002750190899E-1    5.068962886527677E-1
 1.225000000000000E+10   6.352075785921140E-1    2.010057196979660E-1
 1.226000000000000E+10   6.405585407023889E-1   -1.712790726792046E-1
 1.227000000000000E+10   4.473511586783572E-1   -4.883257890282447E-1
 1.228000000000000E+10   1.154769039393567E-1   -6.516037304926633E-1
 1.229000000000000E+10  -2.507171277831104E-1   -6.099662268971486E-1
 1.230000000000000E+10  -5.362268184033973E-1   -3.765895343738559E-1
 1.231000000000000E+10  -6.542161398477637E-1   -2.242372441309732E-2
 1.232000000000000E+10  -5.645938051277601E-1    3.375519452056896E-1
 1.233000000000000E+10  -2.941344232204963E-1    5.925373795346686E-1
 1.234000000000000E+10   7.485177247993427E-2    6.586127552250209E-1
 1.235000000000000E+10   4.221925979533853E-1    5.095265856776284E-1
 1.236000000000000E+10   6.354335834593869E-1    2.007651264140587E-1
 1.237000000000000E+10   6.443532851074590E-1   -1.742749394045539E-1
 1.238000000000000E+10   4.478609186521373E-1   -4.936676766909080E-1
 1.239000000000000E+10   1.092602178485665E-1   -6.570710124023946E-1
 1.240000000000000E+10  -2.662343432643067E-1   -6.126239009525326E-1
 1.241000000000000E+10  -5.539658857292834E-1   -3.750777733534011E-1
 1.242000000000000E+10  -6.693529254849038E-1   -1.816654271634851E-2
 1.243000000000000E+10  -5.746159325545979E-1    3.461643145826915E-1
 1.244000000000000E+10  -2.990865216894865E-1    6.031890908884664E-1
 1.245000000000000E+10   7.137573099954732E-2    6.728792562225722E-1
 1.246000000000000E+10   4.188316932323336E-1    5.258681693569432E-1
 1.247000000000000E+10   6.362692695319996E-1    2.136517274028634E-1
 1.248000000000000E+10   6.531908892720794E-1   -1.686453878651416E-1
 1.249000000000000E+10   4.595312835129899E-1   -5.000712199373476E-1
 1.250000000000000E+10   1.151259891794978E-1   -6.703132027009483E-1
