#  HZ   S   RI   R     50.00 
! Rohde & Schwarz Vector Network Analyzer 
! Rohde-Schwarz,ZNA43-4Port,1332450044101932,2.92
! Created: UTC 6/9/2026, 6:26:13 AM
! freq[Hz]                re:S11                  im:S11
 8.000000000000000E9     3.498957456779553E-1   -6.609172997680319E-1
 8.010000000000000E9    -8.429239238756960E-2   -7.414758109720407E-1
 8.020000000000000E9    -4.851891982863804E-1   -5.626746520937480E-1
 8.030000000000000E9    -7.161465543363209E-1   -1.858449535657367E-1
 8.040000000000000E9    -6.929581397479947E-1    2.582036046296590E-1
 8.050000000000000E9    -4.257155576501770E-1    6.097673527399190E-1
 8.060000000000000E9    -1.726866519270153E-2    7.470907193677390E-1
 8.070000000000000E9     3.954372655616442E-1    6.360224297277011E-1
 8.080000000000000E9     6.793281275660827E-1    3.211857712051259E-1
 8.090000000000000E9     7.489004335010210E-1   -9.578058486223476E-2
 8.100000000000000E9     5.811425936360571E-1   -4.841418432483680E-1
 8.110000000000000E9     2.231716393171455E-1   -7.194895217323137E-1
 8.120000000000000E9    -2.083713373815415E-1   -7.213212962148136E-1
 8.130000000000000E9    -5.697804350500902E-1   -4.854919635064246E-1
 8.140000000000000E9    -7.407133194470601E-1   -9.199789235221889E-2
 8.150000000000000E9    -6.683667079732866E-1    3.277288553902705E-1
 8.160000000000000E9    -3.757493026605898E-1    6.459565674105425E-1
 8.170000000000000E9     3.576684303209649E-2    7.539072403234770E-1
 8.180000000000000E9     4.364625504069498E-1    6.225250010921676E-1
 8.190000000000000E9     7.009987018248950E-1    2.943947343980299E-1
 8.200000000000000E9     7.456925686493883E-1   -1.273072099489224E-1
 8.210000000000000E9     5.608371788637156E-1   -5.093787469836539E-1
 8.220000000000000E9     1.959774198564884E-1   -7.270768948992851E-1
 8.230000000000000E9    -2.322513197562081E-1   -7.073246610579111E-1
 8.240000000000000E9    -5.838034650564586E-1   -4.507133587990367E-1
 8.250000000000000E9    -7.368878256300710E-1   -3.684793773431491E-2
 8.260000000000000E9    -6.345873265266567E-1    3.835768251158442E-1
 8.270000000000000E9    -3.102554141147546E-1    6.758872805703294E-1
 8.280000000000000E9     1.215604719082497E-1    7.345716363055214E-1
 8.290000000000000E9     5.094921955657876E-1    5.446585521393905E-1
 8.300000000000000E9     7.263133469130048E-1    1.744221554333636E-1
 8.310000000000000E9     6.926866954797676E-1   -2.485282052831313E-1
 8.320000000000000E9     4.442882370292696E-1   -5.874201736877744E-1
 8.330000000000000E9     2.885569646944735E-2   -7.395087945096642E-1
 8.340000000000000E9    -4.056060553433125E-1   -6.153951758965742E-1
 8.350000000000000E9    -6.836338368019249E-1   -2.575299098830541E-1
 8.360000000000000E9    -6.991785114836609E-1    2.057415949559040E-1
 8.370000000000000E9    -4.420537142503385E-1    5.856862722219200E-1
 8.380000000000000E9    -1.652235369332238E-2    7.409037920261603E-1
 8.390000000000000E9     4.164882738447259E-1    6.188845715539359E-1
 8.400000000000000E9     6.974667407092552E-1    2.667597903581941E-1
 8.410000000000000E9     7.281717853113790E-1   -1.851812143841050E-1
 8.420000000000000E9     4.855815300452347E-1   -5.699856904774415E-1
 8.430000000000000E9     5.772061983714022E-2   -7.366531716254189E-1
 8.440000000000000E9    -3.911952257548088E-1   -6.135461233621775E-1
 8.450000000000000E9    -6.814076966957359E-1   -2.410621145520297E-1
 8.460000000000000E9    -6.845502822213290E-1    2.239106919818925E-1
 8.470000000000000E9    -4.055418469828369E-1    5.970064047717210E-1
 8.480000000000000E9     4.108476136004963E-2    7.259230946481864E-1
 8.490000000000000E9     4.723763502594799E-1    5.627993482946074E-1
 8.500000000000000E9     7.199835251102048E-1    1.794249397196088E-1
 8.510000000000000E9     6.870889471308489E-1   -2.739515551183155E-1
 8.520000000000000E9     3.951467124420110E-1   -6.227160672106211E-1
 8.530000000000000E9    -5.027820948111451E-2   -7.335159978991312E-1
 8.540000000000000E9    -4.770068480392621E-1   -5.531746436297975E-1
 8.550000000000000E9    -7.063907389939578E-1   -1.511131706693308E-1
 8.560000000000000E9    -6.536350549257416E-1    3.125539210088150E-1
 8.570000000000000E9    -3.406232969282262E-1    6.466576375574277E-1
 8.580000000000000E9     9.992811552144581E-2    7.309908088138335E-1
 8.590000000000000E9     5.033727278868690E-1    5.458284245983561E-1
 8.600000000000000E9     7.260615752949965E-1    1.618647851372719E-1
 8.610000000000000E9     6.953416269520912E-1   -2.760968557405109E-1
 8.620000000000000E9     4.173222016828768E-1   -6.158567625197169E-1
 8.630000000000000E9    -7.789756803381166E-3   -7.334441411100083E-1
 8.640000000000000E9    -4.261039833593290E-1   -5.852632351163235E-1
 8.650000000000000E9    -6.868504829095426E-1   -2.231871328236726E-1
 8.660000000000000E9    -6.852750757452656E-1    2.186867165763995E-1
 8.670000000000000E9    -4.292621233043641E-1    5.795932849720149E-1
 8.680000000000000E9    -1.210093092465177E-2    7.277103966009010E-1
 8.690000000000000E9     4.125246375254787E-1    6.100450813665605E-1
 8.700000000000000E9     6.913908668098325E-1    2.742192091978060E-1
 8.710000000000000E9     7.246928501544148E-1   -1.604408758276692E-1
 8.720000000000000E9     5.082138902675432E-1   -5.366378557641943E-1
 8.730000000000000E9     1.177361576324830E-1   -7.260312887855802E-1
 8.740000000000000E9    -3.139979543086838E-1   -6.607324228755498E-1
 8.750000000000000E9    -6.329909465495215E-1   -3.570123976562465E-1
 8.760000000000000E9    -7.243729806634194E-1    8.160008249194478E-2
 8.770000000000000E9    -5.450225982562579E-1    4.920823113183763E-1
 8.780000000000000E9    -1.640170022434538E-1    7.200989031606130E-1
 8.790000000000000E9     2.755362603752812E-1    6.874245409485972E-1
 8.800000000000000E9     6.186531928853877E-1    4.091396527111982E-1
 8.810000000000000E9     7.467356398246130E-1   -1.127379073311063E-2
 8.820000000000000E9     6.091120690173103E-1   -4.316285216505883E-1
 8.830000000000000E9     2.484379189119892E-1   -6.964375742714050E-1
 8.840000000000000E9    -2.029187407501058E-1   -7.005701327716330E-1
 8.850000000000000E9    -5.736597371427363E-1   -4.407092742034067E-1
 8.860000000000000E9    -7.189195512901392E-1   -1.593441029230120E-2
 8.870000000000000E9    -5.878396352187789E-1    4.120442982035908E-1
 8.880000000000000E9    -2.337698974720847E-1    6.822888243082147E-1
 8.890000000000000E9     2.078422634430256E-1    6.973319012200836E-1
 8.900000000000000E9     5.731945511307025E-1    4.580821405113359E-1
 8.910000000000000E9     7.322406467302830E-1    5.192927321282475E-2
 8.920000000000000E9     6.316697783390343E-1   -3.717146054100998E-1
 8.930000000000000E9     3.075597181801996E-1   -6.623232879648475E-1
 8.940000000000000E9    -1.257046819185837E-1   -7.151131867822067E-1
 8.950000000000000E9    -5.115615483622654E-1   -5.074011711657036E-1
 8.960000000000000E9    -7.101162148493536E-1   -1.120401072889607E-1
 8.970000000000000E9    -6.464788389543569E-1    3.216143804461118E-1
 8.980000000000000E9    -3.483197686611388E-1    6.355448985011541E-1
 8.990000000000000E9     7.104146721675271E-2    7.215903963587995E-1
 9.000000000000000E9     4.636535639444033E-1    5.578386439188904E-1
 9.010000000000000E9     6.988455605779277E-1    2.120146645660178E-1
 9.020000000000000E9     7.021376125348380E-1   -2.045531097327989E-1
 9.030000000000000E9     4.706061488522830E-1   -5.554821584207511E-1
 9.040000000000000E9     7.720779308384049E-2   -7.185058360364276E-1
 9.050000000000000E9    -3.424472199417005E-1   -6.324774651180343E-1
 9.060000000000000E9    -6.373570362802531E-1   -3.266701814568267E-1
 9.070000000000000E9    -7.082027904935828E-1    9.085107810968392E-2
 9.080000000000000E9    -5.360978569536515E-1    4.751648329611531E-1
 9.090000000000000E9    -1.821607573490197E-1    7.002733993412855E-1
 9.100000000000000E9     2.358453494403987E-1    6.931013675913469E-1
 9.110000000000000E9     5.774897143633139E-1    4.553197945344436E-1
 9.120000000000000E9     7.343651666381403E-1    6.889661015456501E-2
 9.130000000000000E9     6.548923235419477E-1   -3.407810925553443E-1
 9.140000000000000E9     3.647447074854015E-1   -6.409039817264551E-1
 9.150000000000000E9    -4.317487082023462E-2   -7.339592856882664E-1
 9.160000000000000E9    -4.408676550316694E-1   -5.835972494613022E-1
 9.170000000000000E9    -6.925933509890644E-1   -2.422310667842260E-1
 9.180000000000000E9    -7.161308883944294E-1    1.794099333765109E-1
 9.190000000000000E9    -5.044643342326388E-1    5.429793270661583E-1
 9.200000000000000E9    -1.282388637849551E-1    7.309303853905114E-1
 9.210000000000000E9     2.909758994268521E-1    6.897101517543474E-1
 9.220000000000000E9     6.186543971854618E-1    4.278966500879446E-1
 9.230000000000000E9     7.512823159298900E-1    2.991644492838355E-2
 9.240000000000000E9     6.452174772716730E-1   -3.785036596492174E-1
 9.250000000000000E9     3.305237152505379E-1   -6.649418899752912E-1
 9.260000000000000E9    -8.714349159264161E-2   -7.336916585655822E-1
 9.270000000000000E9    -4.748377521096364E-1   -5.589404670951361E-1
 9.280000000000000E9    -7.012005351793551E-1   -1.990389920011714E-1
 9.290000000000000E9    -6.928686521842663E-1    2.245786745526224E-1
 9.300000000000000E9    -4.554817576162008E-1    5.740327602710049E-1
 9.310000000000000E9    -6.881793483224644E-2    7.313257405557275E-1
 9.320000000000000E9     3.434279239941483E-1    6.532839024106597E-1
 9.330000000000000E9     6.478752456138849E-1    3.599538391682214E-1
 9.340000000000000E9     7.396586928504929E-1   -5.435357896910104E-2
 9.350000000000000E9     5.864730422273461E-1   -4.494373990898444E-1
 9.360000000000000E9     2.322292278492929E-1   -6.921633439672774E-1
 9.370000000000000E9    -2.000141479610586E-1   -6.980071344145132E-1
 9.380000000000000E9    -5.615491041027835E-1   -4.610059294679791E-1
 9.390000000000000E9    -7.233616967645735E-1   -6.094373060782112E-2
 9.400000000000000E9    -6.241313645720887E-1    3.595864476728098E-1
 9.410000000000000E9    -3.043739718967798E-1    6.547142377733750E-1
 9.420000000000000E9     1.263691740878448E-1    7.126642873845389E-1
 9.430000000000000E9     5.115732052873069E-1    5.117170058079681E-1
 9.440000000000000E9     7.101741120366966E-1    1.232793147367607E-1
 9.450000000000000E9     6.444225004606774E-1   -3.122055737405872E-1
 9.460000000000000E9     3.352553622676725E-1   -6.294872715512448E-1
 9.470000000000000E9    -1.063850114802540E-1   -7.005607292806468E-1
 9.480000000000000E9    -5.048840508827865E-1   -4.895809048279083E-1
 9.490000000000000E9    -6.949774504949620E-1   -7.956332708527875E-2
 9.500000000000000E9    -5.989543160884931E-1    3.604182028161528E-1
 9.510000000000000E9    -2.572430348749253E-1    6.442595017758521E-1
 9.520000000000000E9     1.854202963805393E-1    6.640462674067809E-1
 9.530000000000000E9     5.514285216795952E-1    4.126813411934458E-1
 9.540000000000000E9     6.895973558543907E-1   -9.707213883444444E-3
 9.550000000000000E9     5.400735888231221E-1   -4.263826767495177E-1
 9.560000000000000E9     1.607138243102516E-1   -6.630108824608633E-1
 9.570000000000000E9    -2.805610827994796E-1   -6.198263800502934E-1
 9.580000000000000E9    -6.017774506462586E-1   -3.218616398815358E-1
 9.590000000000000E9    -6.770687441021627E-1    1.053070732623402E-1
 9.600000000000000E9    -4.809767348806901E-1    4.881095749958876E-1
 9.610000000000000E9    -1.028547361119171E-1    6.815220103788248E-1
 9.620000000000000E9     3.123926406953194E-1    6.170254750673332E-1
 9.630000000000000E9     6.099280860442756E-1    3.246717263221385E-1
 9.640000000000000E9     6.826336559663654E-1   -8.486800032085234E-2
 9.650000000000000E9     5.052403624498055E-1   -4.616328567875097E-1
 9.660000000000000E9     1.483398580726314E-1   -6.666627974835009E-1
 9.670000000000000E9    -2.602294849698100E-1   -6.287387956720764E-1
 9.680000000000000E9    -5.718577583285740E-1   -3.655620022127815E-1
 9.690000000000000E9    -6.789180536486148E-1    2.319366761281776E-2
 9.700000000000000E9    -5.535778712504706E-1    3.997415642686962E-1
 9.710000000000000E9    -2.435997068315909E-1    6.372339217044153E-1
 9.720000000000000E9     1.426571362240181E-1    6.672818781661490E-1
 9.730000000000000E9     4.829064354663449E-1    4.860041864875643E-1
 9.740000000000000E9     6.723351556687588E-1    1.511530312136070E-1
 9.750000000000000E9     6.505747178963834E-1   -2.325847587806653E-1
 9.760000000000000E9     4.181853626080869E-1   -5.466104434440221E-1
 9.770000000000000E9     5.215555799559951E-2   -6.846513942655053E-1
 9.780000000000000E9    -3.280501151810762E-1   -6.023798565676483E-1
 9.790000000000000E9    -6.011719095351740E-1   -3.294858288342740E-1
 9.800000000000000E9    -6.832730468092669E-1    4.613324177809888E-2
 9.810000000000000E9    -5.540927219901213E-1    4.073857719119469E-1
 9.820000000000000E9    -2.541237830013597E-1    6.442200673690957E-1
 9.830000000000000E9     1.252377767830354E-1    6.847184727453217E-1
 9.840000000000000E9     4.675052293151052E-1    5.171392472045023E-1
 9.850000000000000E9     6.694539807901483E-1    1.932361859481588E-1
 9.860000000000000E9     6.744467712789572E-1   -1.902656116572764E-1
 9.870000000000000E9     4.731593673043568E-1   -5.188441524921950E-1
 9.880000000000000E9     1.249538764960778E-1   -6.903345207793218E-1
 9.890000000000000E9    -2.636061327976491E-1   -6.485935530074990E-1
 9.900000000000000E9    -5.702305723234362E-1   -4.049798314415642E-1
 9.910000000000000E9    -6.991010096112276E-1   -3.897367502390941E-2
 9.920000000000000E9    -6.110003622352840E-1    3.383690804289967E-1
 9.930000000000000E9    -3.366761997329084E-1    6.101980412733216E-1
 9.940000000000000E9     3.824440327071740E-2    6.972050292803438E-1
 9.950000000000000E9     4.026096174270486E-1    5.757255216081053E-1
 9.960000000000000E9     6.439514509276547E-1    2.766105158854963E-1
 9.970000000000000E9     6.924058381234814E-1   -1.075410553636295E-1
 9.980000000000000E9     5.287810640975179E-1   -4.616698590599917E-1
 9.990000000000000E9     2.000110824422425E-1   -6.745998839918735E-1
 1.000000000000000E+10  -1.919002252106667E-1   -6.779553529812292E-1
 1.001000000000000E+10  -5.237575815437422E-1   -4.667592140714705E-1
 1.002000000000000E+10  -6.923510154601776E-1   -1.099912245573224E-1
 1.003000000000000E+10  -6.433589785408491E-1    2.812566337565755E-1
 1.004000000000000E+10  -3.899436323212458E-1    5.842988720961246E-1
 1.005000000000000E+10  -1.144813562372066E-2    7.000064567614717E-1
 1.006000000000000E+10   3.726145259742343E-1    5.956388629000416E-1
 1.007000000000000E+10   6.372977521739609E-1    2.980716524681102E-1
 1.008000000000000E+10   6.958970281154850E-1   -9.618860078981713E-2
 1.009000000000000E+10   5.279452558567924E-1   -4.602938680074221E-1
 1.010000000000000E+10   1.829932298809865E-1   -6.741462436411917E-1
 1.011000000000000E+10  -2.223300860580043E-1   -6.642938443906052E-1
 1.012000000000000E+10  -5.543753884367314E-1   -4.270380228294743E-1
 1.013000000000000E+10  -6.955436804666808E-1   -4.148939462860608E-2
 1.014000000000000E+10  -5.949887761538195E-1    3.577514241369521E-1
 1.015000000000000E+10  -2.882490813486793E-1    6.327995063173431E-1
 1.016000000000000E+10   1.189732746026068E-1    6.841965520045997E-1
 1.017000000000000E+10   4.865652251406971E-1    4.955994179431760E-1
 1.018000000000000E+10   6.852924070702905E-1    1.277602062337237E-1
 1.019000000000000E+10   6.371360926832537E-1   -2.932234114804181E-1
 1.020000000000000E+10   3.510076752132614E-1   -6.113761039882669E-1
 1.021000000000000E+10  -7.551740550282630E-2   -6.989787029167541E-1
 1.022000000000000E+10  -4.736304228249182E-1   -5.174275518243890E-1
 1.023000000000000E+10  -6.879444133358529E-1   -1.364993003627828E-1
 1.024000000000000E+10  -6.366468357742506E-1    2.967449794840188E-1
 1.025000000000000E+10  -3.389360534253271E-1    6.162817291612799E-1
 1.026000000000000E+10   9.407943136948492E-2    7.017764654704289E-1
 1.027000000000000E+10   4.960695193848945E-1    5.141805948549624E-1
 1.028000000000000E+10   7.081448803216260E-1    1.227578932432361E-1
 1.029000000000000E+10   6.455118799759285E-1   -3.195820240644849E-1
 1.030000000000000E+10   3.307903130039724E-1   -6.411646290309279E-1
 1.031000000000000E+10  -1.107634564461754E-1   -7.162070492679166E-1
 1.032000000000000E+10  -5.112327476891848E-1   -5.136289663510635E-1
 1.033000000000000E+10  -7.127804018174515E-1   -1.107936817770797E-1
 1.034000000000000E+10  -6.357927354489047E-1    3.321450153563937E-1
 1.035000000000000E+10  -3.168016762125641E-1    6.427166637922169E-1
 1.036000000000000E+10   1.175683217201177E-1    7.052557658624432E-1
 1.037000000000000E+10   5.060118331696040E-1    5.044739286648112E-1
 1.038000000000000E+10   7.078171474911229E-1    1.170514441109441E-1
 1.039000000000000E+10   6.496628092316230E-1   -3.162938908160645E-1
 1.040000000000000E+10   3.519329846986593E-1   -6.353189637523605E-1
 1.041000000000000E+10  -7.867367511357556E-2   -7.220402968932503E-1
 1.042000000000000E+10  -4.784567225783988E-1   -5.457920027329207E-1
 1.043000000000000E+10  -7.023804389331268E-1   -1.777579997790602E-1
 1.044000000000000E+10  -6.792633143564442E-1    2.454097801195788E-1
 1.045000000000000E+10  -4.261537252840830E-1    5.787526168937800E-1
 1.046000000000000E+10  -3.228657375876413E-2    7.181488261562288E-1
 1.047000000000000E+10   3.700415110854655E-1    6.190128713375191E-1
 1.048000000000000E+10   6.499415219419620E-1    3.148650940459629E-1
 1.049000000000000E+10   7.144496358607586E-1   -9.366878519827181E-2
 1.050000000000000E+10   5.419499522029972E-1   -4.710492693455197E-1
 1.051000000000000E+10   1.935437798545112E-1   -6.923813536255528E-1
 1.052000000000000E+10  -2.177724183946711E-1   -6.824172336283272E-1
 1.053000000000000E+10  -5.552565284887954E-1   -4.464113288436442E-1
 1.054000000000000E+10  -7.065811527044742E-1   -6.265529886262815E-2
 1.055000000000000E+10  -6.222225010294717E-1    3.390081885194113E-1
 1.056000000000000E+10  -3.380134848540941E-1    6.218238223044207E-1
 1.057000000000000E+10   5.118895737815438E-2    7.034743204306063E-1
 1.058000000000000E+10   4.201512014391786E-1    5.656282644094380E-1
 1.059000000000000E+10   6.596211580154913E-1    2.553383991030662E-1
 1.060000000000000E+10   6.988259718482451E-1   -1.357461190545830E-1
 1.061000000000000E+10   5.165695630695831E-1   -4.877575952900260E-1
 1.062000000000000E+10   1.691032232256539E-1   -6.894392302345188E-1
 1.063000000000000E+10  -2.358340386594414E-1   -6.687312197172524E-1
 1.064000000000000E+10  -5.626521252294663E-1   -4.282561585912718E-1
 1.065000000000000E+10  -7.018594138725043E-1   -4.983069888183377E-2
 1.066000000000000E+10  -6.092296785799174E-1    3.454999493785209E-1
 1.067000000000000E+10  -3.222954945858156E-1    6.234933729841396E-1
 1.068000000000000E+10   6.385248388824175E-2    7.028912092288767E-1
 1.069000000000000E+10   4.296513035184872E-1    5.640203160202908E-1
 1.070000000000000E+10   6.635766895376927E-1    2.516115705077298E-1
 1.071000000000000E+10   7.022236193841765E-1   -1.387950849419852E-1
 1.072000000000000E+10   5.248564532059450E-1   -4.889856423551133E-1
 1.073000000000000E+10   1.847325926944751E-1   -6.888487200130272E-1
 1.074000000000000E+10  -2.137818617561480E-1   -6.725968669456114E-1
 1.075000000000000E+10  -5.441370436837980E-1   -4.390042837521196E-1
 1.076000000000000E+10  -6.929356532223323E-1   -6.751589666734767E-2
 1.077000000000000E+10  -6.101824774406109E-1    3.273434256294843E-1
 1.078000000000000E+10  -3.208831888264759E-1    6.098328134157633E-1
 1.079000000000000E+10   7.346207131744167E-2    6.846723958395918E-1
 1.080000000000000E+10   4.403053056096403E-1    5.347424044877240E-1
 1.081000000000000E+10   6.600985598828303E-1    2.102433322516623E-1
 1.082000000000000E+10   6.700873624353251E-1   -1.806431506766266E-1
 1.083000000000000E+10   4.666861487883990E-1   -5.169677704451312E-1
 1.084000000000000E+10   1.099324966270135E-1   -6.890847189817161E-1
 1.085000000000000E+10  -2.835582916143884E-1   -6.348475612246242E-1
 1.086000000000000E+10  -5.833539627673806E-1   -3.649791238807584E-1
 1.087000000000000E+10  -6.829206181966316E-1    2.539986337782107E-2
 1.088000000000000E+10  -5.504479408876659E-1    4.028284793499947E-1
 1.089000000000000E+10  -2.333298296355990E-1    6.423049342741309E-1
 1.090000000000000E+10   1.625927469183865E-1    6.655473224467311E-1
 1.091000000000000E+10   5.099451026034867E-1    4.678073754364932E-1
 1.092000000000000E+10   6.906056245950151E-1    1.124710097590388E-1
 1.093000000000000E+10   6.423270087148082E-1   -2.840270284975741E-1
 1.094000000000000E+10   3.782746296613563E-1   -5.874818629748401E-1
 1.095000000000000E+10  -1.532300184491766E-2   -6.924496843497933E-1
 1.096000000000000E+10  -3.998565061859113E-1   -5.626645709571901E-1
 1.097000000000000E+10  -6.439677257338667E-1   -2.354869054683842E-1
 1.098000000000000E+10  -6.580044234670683E-1    1.758740312625757E-1
 1.099000000000000E+10  -4.331267850400501E-1    5.231424838824087E-1
 1.100000000000000E+10  -5.162816861011402E-2    6.798312929900676E-1
 1.101000000000000E+10   3.461968263093142E-1    5.912712375507649E-1
 1.102000000000000E+10   6.213765406021016E-1    2.933478968203454E-1
 1.103000000000000E+10   6.820311808645353E-1   -1.059925494813323E-1
 1.104000000000000E+10   5.093970635213749E-1   -4.722480511610191E-1
 1.105000000000000E+10   1.576030597175546E-1   -6.794414990115073E-1
 1.106000000000000E+10  -2.574448197191604E-1   -6.447124036976570E-1
 1.107000000000000E+10  -5.810855019602614E-1   -3.752096900358732E-1
 1.108000000000000E+10  -6.894818319303190E-1    3.096570576497308E-2
 1.109000000000000E+10  -5.464489562002557E-1    4.212471779039549E-1
 1.110000000000000E+10  -2.108246498493489E-1    6.583404708845199E-1
 1.111000000000000E+10   2.023748808335717E-1    6.655672033974548E-1
 1.112000000000000E+10   5.445885118846576E-1    4.460547255673221E-1
 1.113000000000000E+10   7.056417839680396E-1    7.527421681184479E-2
 1.114000000000000E+10   6.316653631014193E-1   -3.239598365457015E-1
 1.115000000000000E+10   3.445462534622287E-1   -6.177629386668503E-1
 1.116000000000000E+10  -5.578820611680965E-2   -7.063869086743013E-1
 1.117000000000000E+10  -4.386846637894138E-1   -5.529718704350084E-1
 1.118000000000000E+10  -6.702713457042901E-1   -2.080861598251824E-1
 1.119000000000000E+10  -6.676499749424915E-1    2.099701452304490E-1
 1.120000000000000E+10  -4.305780990335236E-1    5.542802996977496E-1
 1.121000000000000E+10  -5.088799096179922E-2    7.033926593664938E-1
 1.122000000000000E+10   3.460896683141130E-1    6.168451682799428E-1
 1.123000000000000E+10   6.286003684894129E-1    3.283971105511924E-1
 1.124000000000000E+10   7.087986557749560E-1   -6.546077467800793E-2
 1.125000000000000E+10   5.621417416811593E-1   -4.404538730161369E-1
 1.126000000000000E+10   2.265719788167717E-1   -6.726590553030968E-1
 1.127000000000000E+10  -1.883595922577723E-1   -6.821642731072288E-1
 1.128000000000000E+10  -5.421328491735445E-1   -4.539614403437756E-1
 1.129000000000000E+10  -7.032333323161337E-1   -6.415407379336041E-2
 1.130000000000000E+10  -6.148235085667844E-1    3.432659295269856E-1
 1.131000000000000E+10  -3.089587903622935E-1    6.331122068280302E-1
 1.132000000000000E+10   9.511648347241486E-2    7.050025980250816E-1
 1.133000000000000E+10   4.658648045357160E-1    5.475903868257868E-1
 1.134000000000000E+10   6.893556159858895E-1    2.135464868124687E-1
 1.135000000000000E+10   6.918988255813612E-1   -1.931787112273473E-1
 1.136000000000000E+10   4.764299063405107E-1   -5.392451916280774E-1
 1.137000000000000E+10   1.004442910407817E-1   -7.087203789631300E-1
 1.138000000000000E+10  -3.101210812851800E-1   -6.362162201358197E-1
 1.139000000000000E+10  -6.103203339842560E-1   -3.416533918383170E-1
 1.140000000000000E+10  -6.915939032905591E-1    7.329430364723410E-2
 1.141000000000000E+10  -5.280038151746136E-1    4.529292737780336E-1
 1.142000000000000E+10  -1.811473962732147E-1    6.743238250407654E-1
 1.143000000000000E+10   2.279303581861685E-1    6.647693769453297E-1
 1.144000000000000E+10   5.606217633669232E-1    4.323509811563263E-1
 1.145000000000000E+10   7.098995669666145E-1    5.886331717357160E-2
 1.146000000000000E+10   6.250411377914892E-1   -3.340088800475654E-1
 1.147000000000000E+10   3.364629020487320E-1   -6.177141123917665E-1
 1.148000000000000E+10  -6.393120437033178E-2   -6.962877357528416E-1
 1.149000000000000E+10  -4.424975781686751E-1   -5.368655488211407E-1
 1.150000000000000E+10  -6.638836873667705E-1   -1.905450005942080E-1
 1.151000000000000E+10  -6.467455956942639E-1    2.291376356875404E-1
 1.152000000000000E+10  -3.977072653104973E-1    5.615709992550844E-1
 1.153000000000000E+10  -1.428688769025845E-2    6.931368346932861E-1
 1.154000000000000E+10   3.696738854039632E-1    5.906949161953483E-1
 1.155000000000000E+10   6.317387691392626E-1    2.928542891573854E-1
 1.156000000000000E+10   6.916937665364049E-1   -1.007875509113717E-1
 1.157000000000000E+10   5.227775947055644E-1   -4.643022943318117E-1
 1.158000000000000E+10   1.749378952804371E-1   -6.719854871628650E-1
 1.159000000000000E+10  -2.328962282212865E-1   -6.455746448670291E-1
 1.160000000000000E+10  -5.565625717417130E-1   -3.911263381062265E-1
 1.161000000000000E+10  -6.777471962651795E-1   -1.023809050559905E-3
 1.162000000000000E+10  -5.554165503072169E-1    3.875132124593257E-1
 1.163000000000000E+10  -2.363287838853576E-1    6.375436275203623E-1
 1.164000000000000E+10   1.647291330869854E-1    6.651645538239228E-1
 1.165000000000000E+10   5.091499194952073E-1    4.676752452750148E-1
 1.166000000000000E+10   6.803508880992890E-1    1.187000143745005E-1
 1.167000000000000E+10   6.323255815492138E-1   -2.684828551364626E-1
 1.168000000000000E+10   3.811961017175076E-1   -5.686378957405720E-1
 1.169000000000000E+10   5.843951681929340E-3   -6.842099668862194E-1
 1.170000000000000E+10  -3.724391041974252E-1   -5.722613615192873E-1
 1.171000000000000E+10  -6.264733973926114E-1   -2.593224014241047E-1
 1.172000000000000E+10  -6.652710127589083E-1    1.445777928277996E-1
 1.173000000000000E+10  -4.730051524394015E-1    4.990668019154260E-1
 1.174000000000000E+10  -1.202361988859221E-1    6.816867212051988E-1
 1.175000000000000E+10   2.688710990233276E-1    6.364098578311931E-1
 1.176000000000000E+10   5.730038257319010E-1    3.892448335019298E-1
 1.177000000000000E+10   6.939388380461340E-1    2.118999581548624E-2
 1.178000000000000E+10   5.958206328603629E-1   -3.542094539569473E-1
 1.179000000000000E+10   3.047647148332507E-1   -6.164949800700251E-1
 1.180000000000000E+10  -8.658195914642618E-2   -6.735234686273041E-1
 1.181000000000000E+10  -4.470707191616179E-1   -5.068657667957588E-1
 1.182000000000000E+10  -6.504722235887616E-1   -1.670219613793175E-1
 1.183000000000000E+10  -6.308061086171068E-1    2.256013791998976E-1
 1.184000000000000E+10  -4.011922252577254E-1    5.407192835744132E-1
 1.185000000000000E+10  -4.044538153751736E-2    6.796755137621348E-1
 1.186000000000000E+10   3.273853847025592E-1    6.011727478875871E-1
 1.187000000000000E+10   5.959046307699858E-1    3.391066946173863E-1
 1.188000000000000E+10   6.857392573470981E-1   -2.498520529013317E-2
 1.189000000000000E+10   5.711996777935402E-1   -3.821483718505925E-1
 1.190000000000000E+10   2.849836731067521E-1   -6.261549723565347E-1
 1.191000000000000E+10  -9.384553191766604E-2   -6.713485298516438E-1
 1.192000000000000E+10  -4.424660926139885E-1   -5.050561726317337E-1
 1.193000000000000E+10  -6.474348510773913E-1   -1.741349021376376E-1
 1.194000000000000E+10  -6.372076591417190E-1    2.148792217342726E-1
 1.195000000000000E+10  -4.148911024591001E-1    5.307591104801308E-1
 1.196000000000000E+10  -5.342793383738833E-2    6.746816954421266E-1
 1.197000000000000E+10   3.245850245865883E-1    5.999245921805317E-1
 1.198000000000000E+10   6.002646922616766E-1    3.348726322871745E-1
 1.199000000000000E+10   6.894979605790065E-1   -3.719730596667137E-2
 1.200000000000000E+10   5.613011574217127E-1   -4.017632518817040E-1
 1.201000000000000E+10   2.559231201906475E-1   -6.451042482761755E-1
 1.202000000000000E+10  -1.385567408151516E-1   -6.803978738276397E-1
 1.203000000000000E+10  -4.893319778666765E-1   -4.881106211809345E-1
 1.204000000000000E+10  -6.746267674756253E-1   -1.317517034820566E-1
 1.205000000000000E+10  -6.325061851406460E-1    2.680139841235902E-1
 1.206000000000000E+10  -3.839851314667597E-1    5.734562689483679E-1
 1.207000000000000E+10  -8.584601187302022E-3    6.916464511999009E-1
 1.208000000000000E+10   3.730528427263680E-1    5.843440962256935E-1
 1.209000000000000E+10   6.355964575090308E-1    2.836822823613061E-1
 1.210000000000000E+10   6.905859541654028E-1   -1.116978044099325E-1
 1.211000000000000E+10   5.136449761498827E-1   -4.698644877452375E-1
 1.212000000000000E+10   1.627262822903699E-1   -6.715266909882645E-1
 1.213000000000000E+10  -2.441462166085668E-1   -6.441621045482591E-1
 1.214000000000000E+10  -5.675156903072154E-1   -3.939266590091628E-1
 1.215000000000000E+10  -6.933045559080950E-1   -5.853635156779145E-3
 1.216000000000000E+10  -5.753158753677169E-1    3.903858431398229E-1
 1.217000000000000E+10  -2.556341539683577E-1    6.513682668930656E-1
 1.218000000000000E+10   1.521465614309390E-1    6.873807408041788E-1
 1.219000000000000E+10   5.066508723025699E-1    4.912285377619587E-1
 1.220000000000000E+10   6.908416710591933E-1    1.333576750436927E-1
 1.221000000000000E+10   6.483772078627220E-1   -2.691822889698893E-1
 1.222000000000000E+10   3.910154902257888E-1   -5.794884019395489E-1
 1.223000000000000E+10   3.234159374810988E-3   -6.941341932975694E-1
 1.224000000000000E+10  -3.844347639052596E-1   -5.707439011856857E-1
 1.225000000000000E+10  -6.368425812007805E-1   -2.488883087280997E-1
 1.226000000000000E+10  -6.655154668450282E-1    1.562426843338216E-1
 1.227000000000000E+10  -4.584164636131451E-1    5.047124172954919E-1
 1.228000000000000E+10  -9.013071904841556E-2    6.746864659137455E-1
 1.229000000000000E+10   3.105635172216306E-1    6.074232994844633E-1
 1.230000000000000E+10   6.034629998987880E-1    3.266414559282943E-1
 1.231000000000000E+10   6.814603811669498E-1   -6.516393801877160E-2
 1.232000000000000E+10   5.229495134106948E-1   -4.338043433736855E-1
 1.233000000000000E+10   1.857609784699405E-1   -6.484623439872333E-1
 1.234000000000000E+10  -2.102518154261265E-1   -6.388573641718789E-1
 1.235000000000000E+10  -5.316224645024676E-1   -4.123237352309667E-1
 1.236000000000000E+10  -6.670594662550224E-1   -4.101754952432048E-2
 1.237000000000000E+10  -5.725130608922721E-1    3.432866904991522E-1
 1.238000000000000E+10  -2.777931815091969E-1    6.077079890977503E-1
 1.239000000000000E+10   1.134732105977156E-1    6.576647083775352E-1
 1.240000000000000E+10   4.615294055177729E-1    4.771268755409173E-1
 1.241000000000000E+10   6.501112739549698E-1    1.298103558107452E-1
 1.242000000000000E+10   6.083652793043579E-1   -2.607255474570817E-1
 1.243000000000000E+10   3.531711435384513E-1   -5.572131182363709E-1
 1.244000000000000E+10  -2.446609812520552E-2   -6.558710477230763E-1
 1.245000000000000E+10  -3.903278522284171E-1   -5.233522192466875E-1
 1.246000000000000E+10  -6.197817964145056E-1   -2.159903635299574E-1
 1.247000000000000E+10  -6.335635062614712E-1    1.641354892817534E-1
 1.248000000000000E+10  -4.319086090915932E-1    4.843865538809047E-1
 1.249000000000000E+10  -8.752865634172265E-2    6.386335794310816E-1
 1.250000000000000E+10   2.838403479038863E-1    5.787062066983970E-1
