#  HZ   S   RI   R     50.00 
! Rohde & Schwarz Vector Network Analyzer 
! Rohde-Schwarz,ZNA43-4Port,1332450044101932,2.92
! Created: UTC 6/9/2026, 6:26:45 AM
! freq[Hz]                re:S11                  im:S11
 8.000000000000000E9     7.270649022120753E-1   -1.295947389907331E-1
 8.010000000000000E9     4.904103794356869E-1   -5.550344082709219E-1
 8.020000000000000E9     5.181199335500761E-2   -7.376549847887635E-1
 8.030000000000000E9    -4.030887240909963E-1   -6.155221151753613E-1
 8.040000000000000E9    -6.912275979281283E-1   -2.420655202417362E-1
 8.050000000000000E9    -6.966072325141944E-1    2.278278040746005E-1
 8.060000000000000E9    -4.330191265216800E-1    5.981910365040390E-1
 8.070000000000000E9    -7.397076408849099E-3    7.409491522013184E-1
 8.080000000000000E9     4.164268860257753E-1    6.160331306017642E-1
 8.090000000000000E9     6.940240678894473E-1    2.791327263440923E-1
 8.100000000000000E9     7.368943732828862E-1   -1.525449975039802E-1
 8.110000000000000E9     5.284691359326298E-1   -5.330583204641556E-1
 8.120000000000000E9     1.418084594662131E-1   -7.349669542130118E-1
 8.130000000000000E9    -2.919653306349088E-1   -6.868357083647516E-1
 8.140000000000000E9    -6.231397765612111E-1   -4.064987108013076E-1
 8.150000000000000E9    -7.415487502744185E-1    6.880061353846755E-3
 8.160000000000000E9    -6.081881373356587E-1    4.230902248083806E-1
 8.170000000000000E9    -2.755971318040021E-1    6.945712896320352E-1
 8.180000000000000E9     1.453367083716845E-1    7.404754228565333E-1
 8.190000000000000E9     5.206376754125044E-1    5.504047819355610E-1
 8.200000000000000E9     7.321125854039964E-1    1.864766311884069E-1
 8.210000000000000E9     7.211065053826082E-1   -2.363995268061638E-1
 8.220000000000000E9     4.826331224619019E-1   -5.838405288759716E-1
 8.230000000000000E9     9.150283061375855E-2   -7.450998605587223E-1
 8.240000000000000E9    -3.294781498864403E-1   -6.653913435879392E-1
 8.250000000000000E9    -6.433941625210686E-1   -3.635282951849606E-1
 8.260000000000000E9    -7.400436432161327E-1    5.212682939197748E-2
 8.270000000000000E9    -5.883770767264767E-1    4.558418228343718E-1
 8.280000000000000E9    -2.370334553436847E-1    7.068419155281448E-1
 8.290000000000000E9     1.906140749612455E-1    7.225532361326145E-1
 8.300000000000000E9     5.546669905403533E-1    5.069712802132179E-1
 8.310000000000000E9     7.385581319997320E-1    1.300441315826990E-1
 8.320000000000000E9     6.895488286661733E-1   -2.893786096712371E-1
 8.330000000000000E9     4.143714058325490E-1   -6.163023813491485E-1
 8.340000000000000E9     9.827802554203345E-3   -7.332294223408932E-1
 8.350000000000000E9    -4.010413486967487E-1   -6.152212820739466E-1
 8.360000000000000E9    -6.803097847047401E-1   -2.658926144549784E-1
 8.370000000000000E9    -7.082878943691361E-1    1.807872380150320E-1
 8.380000000000000E9    -4.785118530764426E-1    5.596448598652524E-1
 8.390000000000000E9    -7.819783469771721E-2    7.384447319140046E-1
 8.400000000000000E9     3.505281043107165E-1    6.584896754870567E-1
 8.410000000000000E9     6.661442432178347E-1    3.517463579360218E-1
 8.420000000000000E9     7.541615437380090E-1   -7.840718999832186E-2
 8.430000000000000E9     5.810241494038159E-1   -4.835704984951762E-1
 8.440000000000000E9     2.030224811057490E-1   -7.189280555864036E-1
 8.450000000000000E9    -2.494355405862516E-1   -6.936946044590276E-1
 8.460000000000000E9    -6.026371763820537E-1   -4.130450486319255E-1
 8.470000000000000E9    -7.254231222813342E-1    2.413863909203208E-2
 8.480000000000000E9    -5.660883454857752E-1    4.522943743630792E-1
 8.490000000000000E9    -1.846082092141439E-1    7.039987878317266E-1
 8.500000000000000E9     2.688732560910567E-1    6.841259705687184E-1
 8.510000000000000E9     6.170654953459670E-1    4.036929811609486E-1
 8.520000000000000E9     7.368521504611791E-1   -2.437477018560009E-2
 8.530000000000000E9     5.879302952600871E-1   -4.440059564906871E-1
 8.540000000000000E9     2.190214204419274E-1   -7.012688790787948E-1
 8.550000000000000E9    -2.350409894744006E-1   -6.889019859168548E-1
 8.560000000000000E9    -5.979373092066873E-1   -4.028806842190872E-1
 8.570000000000000E9    -7.180738691926346E-1    4.350992643546130E-2
 8.580000000000000E9    -5.507444884401865E-1    4.673920105660868E-1
 8.590000000000000E9    -1.717033763852268E-1    7.066444530969206E-1
 8.600000000000000E9     2.720846972394565E-1    6.787713472177771E-1
 8.610000000000000E9     6.211925585488681E-1    4.033343193721404E-1
 8.620000000000000E9     7.459234240853085E-1   -1.859556194794394E-2
 8.630000000000000E9     6.039181303789131E-1   -4.335326630375038E-1
 8.640000000000000E9     2.476811794042260E-1   -6.912859375844719E-1
 8.650000000000000E9    -1.950274342394558E-1   -6.991423122181020E-1
 8.660000000000000E9    -5.588015053953160E-1   -4.529948637193768E-1
 8.670000000000000E9    -7.136532229016194E-1   -4.121133112594178E-2
 8.680000000000000E9    -6.018705271806900E-1    3.864540023058037E-1
 8.690000000000000E9    -2.624736106690906E-1    6.717917300483754E-1
 8.700000000000000E9     1.778413662170486E-1    7.090442636936840E-1
 8.710000000000000E9     5.525801520470052E-1    4.852812102221811E-1
 8.720000000000000E9     7.315942582784793E-1    8.952369306812936E-2
 8.730000000000000E9     6.560877587931919E-1   -3.358072735278444E-1
 8.740000000000000E9     3.546777788725504E-1   -6.446333576119901E-1
 8.750000000000000E9    -7.052174472814697E-2   -7.290568458034445E-1
 8.760000000000000E9    -4.734232336094206E-1   -5.527215820569142E-1
 8.770000000000000E9    -7.073384501413224E-1   -1.746581449273474E-1
 8.780000000000000E9    -6.805735363475586E-1    2.689755938007997E-1
 8.790000000000000E9    -4.049665357663205E-1    6.127706346343625E-1
 8.800000000000000E9     1.498896418771519E-2    7.359710284436571E-1
 8.810000000000000E9     4.338932846140739E-1    6.030104565392641E-1
 8.820000000000000E9     7.032184870559903E-1    2.588148456622885E-1
 8.830000000000000E9     7.285248542809102E-1   -1.794491500983510E-1
 8.840000000000000E9     4.945390512750453E-1   -5.557880404733578E-1
 8.850000000000000E9     8.266332677605714E-2   -7.292778786666093E-1
 8.860000000000000E9    -3.540960294617343E-1   -6.362312227148224E-1
 8.870000000000000E9    -6.542356638615294E-1   -3.036827360038848E-1
 8.880000000000000E9    -7.028594127131111E-1    1.423642139845512E-1
 8.890000000000000E9    -4.816828445970240E-1    5.323910598282763E-1
 8.900000000000000E9    -7.693734263018023E-2    7.190071478717942E-1
 8.910000000000000E9     3.536291955163552E-1    6.333727560551978E-1
 8.920000000000000E9     6.546268706557263E-1    3.162223582923147E-1
 8.930000000000000E9     7.182932739018620E-1   -1.148125460142660E-1
 8.940000000000000E9     5.228397398461179E-1   -5.039408927050161E-1
 8.950000000000000E9     1.371422684155610E-1   -7.094504958017982E-1
 8.960000000000000E9    -3.017065220079216E-1   -6.471044095088847E-1
 8.970000000000000E9    -6.241223046944095E-1   -3.422009668749326E-1
 8.980000000000000E9    -7.070028184343502E-1    9.149654787042294E-2
 8.990000000000000E9    -5.208426959213879E-1    4.872810217247487E-1
 9.000000000000000E9    -1.422564257731076E-1    6.976707389610317E-1
 9.010000000000000E9     2.863193934504882E-1    6.580819620399432E-1
 9.020000000000000E9     6.107394704764606E-1    3.861440394657505E-1
 9.030000000000000E9     7.233387457325243E-1   -2.026368385664079E-2
 9.040000000000000E9     5.836913425540867E-1   -4.218309672969313E-1
 9.050000000000000E9     2.360926969163224E-1   -6.746530962044849E-1
 9.060000000000000E9    -1.912116221597540E-1   -6.865120622167098E-1
 9.070000000000000E9    -5.476565421226732E-1   -4.484964623630014E-1
 9.080000000000000E9    -7.031674577799071E-1   -5.034631085059375E-2
 9.090000000000000E9    -6.064783966603008E-1    3.645135067322210E-1
 9.100000000000000E9    -2.937733829219650E-1    6.524698016045386E-1
 9.110000000000000E9     1.218945883052027E-1    7.098705931377843E-1
 9.120000000000000E9     4.985793017832122E-1    5.257873201011650E-1
 9.130000000000000E9     7.091256731380788E-1    1.638458212101013E-1
 9.140000000000000E9     6.841498996525536E-1   -2.531920410129041E-1
 9.150000000000000E9     4.334079505427773E-1   -5.867280671754039E-1
 9.160000000000000E9     3.396513834751703E-2   -7.220622010665364E-1
 9.170000000000000E9    -3.747021047164050E-1   -6.164595602895252E-1
 9.180000000000000E9    -6.569999053322376E-1   -3.045872459565978E-1
 9.190000000000000E9    -7.190094721295555E-1    1.091793091792770E-1
 9.200000000000000E9    -5.420305856180431E-1    4.861827847181374E-1
 9.210000000000000E9    -1.876970688115042E-1    7.101911268198604E-1
 9.220000000000000E9     2.284855226631445E-1    7.047721462529211E-1
 9.230000000000000E9     5.730380766701073E-1    4.753215885685119E-1
 9.240000000000000E9     7.381504109001404E-1    9.574560910795757E-2
 9.250000000000000E9     6.705294086398649E-1   -3.148896873640014E-1
 9.260000000000000E9     3.944635351548294E-1   -6.250881825622828E-1
 9.270000000000000E9    -7.939608078448516E-3   -7.346927774030025E-1
 9.280000000000000E9    -4.052906153912686E-1   -6.056717842019643E-1
 9.290000000000000E9    -6.674578216969355E-1   -2.815966259367687E-1
 9.300000000000000E9    -7.129142182696354E-1    1.312439799269630E-1
 9.310000000000000E9    -5.293281769138638E-1    4.956707482673821E-1
 9.320000000000000E9    -1.806120799705406E-1    7.052665929971962E-1
 9.330000000000000E9     2.275381698545314E-1    6.963678180373072E-1
 9.340000000000000E9     5.682008518882452E-1    4.689535800265405E-1
 9.350000000000000E9     7.323894853350686E-1    9.460908831662072E-2
 9.360000000000000E9     6.658211487683890E-1   -3.069609166196769E-1
 9.370000000000000E9     3.917710177594431E-1   -6.136562173491487E-1
 9.380000000000000E9    -5.095199854117905E-3   -7.272238072128174E-1
 9.390000000000000E9    -3.997993138737588E-1   -6.093137290559784E-1
 9.400000000000000E9    -6.642482616278808E-1   -2.952381868606413E-1
 9.410000000000000E9    -7.169867529601576E-1    1.173031053691061E-1
 9.420000000000000E9    -5.374563975779368E-1    4.918220290097449E-1
 9.430000000000000E9    -1.845006006587442E-1    7.073575226057187E-1
 9.440000000000000E9     2.270462286598282E-1    6.963526276838209E-1
 9.450000000000000E9     5.663844347791333E-1    4.635781795022521E-1
 9.460000000000000E9     7.285718781965886E-1    8.041679447118417E-2
 9.470000000000000E9     6.543797298872692E-1   -3.305881410763946E-1
 9.480000000000000E9     3.630073436260337E-1   -6.351037197840119E-1
 9.490000000000000E9    -5.315552391444234E-2   -7.265715737846374E-1
 9.500000000000000E9    -4.523966891501875E-1   -5.677844219615115E-1
 9.510000000000000E9    -6.940243107875271E-1   -2.127692183762885E-1
 9.520000000000000E9    -6.899065785801248E-1    2.151201059715373E-1
 9.530000000000000E9    -4.443130211206638E-1    5.659212842496841E-1
 9.540000000000000E9    -4.115243980249386E-2    7.182913135693806E-1
 9.550000000000000E9     3.805619325135417E-1    6.139800354105804E-1
 9.560000000000000E9     6.610687619137983E-1    2.830846670813522E-1
 9.570000000000000E9     6.956956595654814E-1   -1.559083432928699E-1
 9.580000000000000E9     4.631155167888187E-1   -5.344415396436211E-1
 9.590000000000000E9     4.974461221933817E-2   -7.025039171129062E-1
 9.600000000000000E9    -3.835919311381509E-1   -5.895855016325632E-1
 9.610000000000000E9    -6.599692850035623E-1   -2.338889099890601E-1
 9.620000000000000E9    -6.657669586465135E-1    2.154727929653928E-1
 9.630000000000000E9    -4.002672754449350E-1    5.743335372545212E-1
 9.640000000000000E9     2.465306706848495E-2    6.980616624827659E-1
 9.650000000000000E9     4.354936085124261E-1    5.404299516819470E-1
 9.660000000000000E9     6.719067245804002E-1    1.668093192956621E-1
 9.670000000000000E9     6.320877222959910E-1   -2.723262949821841E-1
 9.680000000000000E9     3.323438098722760E-1   -5.954279115551183E-1
 9.690000000000000E9    -1.017201948523457E-1   -6.671042410508844E-1
 9.700000000000000E9    -4.864603289098912E-1   -4.606807188199870E-1
 9.710000000000000E9    -6.653299170298012E-1   -7.255756598671499E-2
 9.720000000000000E9    -5.749368942352379E-1    3.381382659327400E-1
 9.730000000000000E9    -2.641740846387814E-1    6.119078105025177E-1
 9.740000000000000E9     1.427879721434941E-1    6.545870552033187E-1
 9.750000000000000E9     4.972717479650915E-1    4.577294937223598E-1
 9.760000000000000E9     6.683377333898597E-1    9.242080440115538E-2
 9.770000000000000E9     5.997057360348567E-1   -3.069425435339803E-1
 9.780000000000000E9     3.149463558511572E-1   -5.950773628244856E-1
 9.790000000000000E9    -8.087883906621755E-2   -6.684882627445401E-1
 9.800000000000000E9    -4.452423443719068E-1   -5.048428769210122E-1
 9.810000000000000E9    -6.517855347632158E-1   -1.634217395428832E-1
 9.820000000000000E9    -6.338883513793188E-1    2.316218434645643E-1
 9.830000000000000E9    -4.014165600888610E-1    5.478844656220880E-1
 9.840000000000000E9    -3.542129769434264E-2    6.810883515894736E-1
 9.850000000000000E9     3.406694505214358E-1    5.912276726192260E-1
 9.860000000000000E9     6.122435805945774E-1    3.133039639481673E-1
 9.870000000000000E9     6.881378543961236E-1   -6.735688453790591E-2
 9.880000000000000E9     5.440022424932698E-1   -4.288563017974211E-1
 9.890000000000000E9     2.243738606114418E-1   -6.546902733745958E-1
 9.900000000000000E9    -1.685459483567646E-1   -6.699242012378555E-1
 9.910000000000000E9    -5.066629627686179E-1   -4.736862413287425E-1
 9.920000000000000E9    -6.819602725984888E-1   -1.251086032490827E-1
 9.930000000000000E9    -6.402882859862088E-1    2.612206768326794E-1
 9.940000000000000E9    -3.998324413834302E-1    5.638971070269492E-1
 9.950000000000000E9    -3.762474174897297E-2    6.936273613298756E-1
 9.960000000000000E9     3.330310768938320E-1    6.083883390335771E-1
 9.970000000000000E9     6.037743224442845E-1    3.405541343609268E-1
 9.980000000000000E9     6.935590544919897E-1   -3.152879120227987E-2
 9.990000000000000E9     5.726941370761993E-1   -3.963992417702052E-1
 1.000000000000000E+10   2.767458034944258E-1   -6.418564770959969E-1
 1.001000000000000E+10  -1.042539065041577E-1   -6.880378598260192E-1
 1.002000000000000E+10  -4.539697357986490E-1   -5.254221039796406E-1
 1.003000000000000E+10  -6.644361395148983E-1   -2.035453744078670E-1
 1.004000000000000E+10  -6.723380138796812E-1    1.804343216635650E-1
 1.005000000000000E+10  -4.740130263833666E-1    5.089080969737163E-1
 1.006000000000000E+10  -1.309579888540151E-1    6.844677618141068E-1
 1.007000000000000E+10   2.526566974123729E-1    6.512351857124045E-1
 1.008000000000000E+10   5.584276461589845E-1    4.198317580984063E-1
 1.009000000000000E+10   6.943173126847604E-1    6.228875173051632E-2
 1.010000000000000E+10   6.195297117251165E-1   -3.144012919323127E-1
 1.011000000000000E+10   3.570775593866182E-1   -5.984217135942329E-1
 1.012000000000000E+10  -1.714276170467131E-2   -6.976483260719397E-1
 1.013000000000000E+10  -3.869144025498815E-1   -5.786469479579909E-1
 1.014000000000000E+10  -6.339429857819789E-1   -2.777609453522365E-1
 1.015000000000000E+10  -6.803348591407075E-1    1.085249202004628E-1
 1.016000000000000E+10  -5.152795688275371E-1    4.565479076361555E-1
 1.017000000000000E+10  -1.899525184721134E-1    6.598110130940030E-1
 1.018000000000000E+10   1.939557063827687E-1    6.578055015774982E-1
 1.019000000000000E+10   5.196991374628880E-1    4.501264559460352E-1
 1.020000000000000E+10   6.846997119564322E-1    9.718899490417165E-2
 1.021000000000000E+10   6.280802451697139E-1   -2.896241342111441E-1
 1.022000000000000E+10   3.656209283746583E-1   -5.857554302385303E-1
 1.023000000000000E+10  -1.916117238610352E-2   -6.889428655816318E-1
 1.024000000000000E+10  -3.975703539042809E-1   -5.623865002644464E-1
 1.025000000000000E+10  -6.427195091313693E-1   -2.478017462080438E-1
 1.026000000000000E+10  -6.669545464717085E-1    1.519097513763800E-1
 1.027000000000000E+10  -4.669528966292678E-1    4.998044222091208E-1
 1.028000000000000E+10  -1.061385439905908E-1    6.784598610231092E-1
 1.029000000000000E+10   2.934088903444781E-1    6.235447993204482E-1
 1.030000000000000E+10   5.928214494292301E-1    3.525385003121289E-1
 1.031000000000000E+10   6.916974512863842E-1   -4.644447244836041E-2
 1.032000000000000E+10   5.480964568279387E-1   -4.320488022555300E-1
 1.033000000000000E+10   2.086039276155902E-1   -6.691448034097398E-1
 1.034000000000000E+10  -2.103273436585251E-1   -6.676866481094341E-1
 1.035000000000000E+10  -5.540523789062066E-1   -4.205751857786532E-1
 1.036000000000000E+10  -6.962673860206861E-1   -2.427456359042911E-2
 1.037000000000000E+10  -5.804155760230455E-1    3.812240688132398E-1
 1.038000000000000E+10  -2.504946159946856E-1    6.440552168565267E-1
 1.039000000000000E+10   1.718710020643247E-1    6.684090131764177E-1
 1.040000000000000E+10   5.336170071704659E-1    4.432767114837282E-1
 1.041000000000000E+10   6.947526614149724E-1    4.912768098446166E-2
 1.042000000000000E+10   5.929517958567960E-1   -3.709841029102188E-1
 1.043000000000000E+10   2.588445183484386E-1   -6.532514299992291E-1
 1.044000000000000E+10  -1.789578726751347E-1   -6.827253643846183E-1
 1.045000000000000E+10  -5.479739736064636E-1   -4.486894472709354E-1
 1.046000000000000E+10  -7.036384873067364E-1   -3.870405132385336E-2
 1.047000000000000E+10  -5.929469696504662E-1    3.812605659579247E-1
 1.048000000000000E+10  -2.627001107509484E-1    6.577799257687542E-1
 1.049000000000000E+10   1.642312361811637E-1    6.922254727407557E-1
 1.050000000000000E+10   5.312619390178090E-1    4.737154691109339E-1
 1.051000000000000E+10   7.114367607367597E-1    8.029977437514386E-2
 1.052000000000000E+10   6.315708870064727E-1   -3.435828563687683E-1
 1.053000000000000E+10   3.219612533756082E-1   -6.433306851630001E-1
 1.054000000000000E+10  -1.062846862145513E-1   -7.095939311397932E-1
 1.055000000000000E+10  -4.970340378412392E-1   -5.135934921879670E-1
 1.056000000000000E+10  -7.040665545687984E-1   -1.353171759430528E-1
 1.057000000000000E+10  -6.542179474028483E-1    2.911339312275353E-1
 1.058000000000000E+10  -3.721768501837537E-1    6.085725163329464E-1
 1.059000000000000E+10   3.341865853469816E-2    7.117442003798330E-1
 1.060000000000000E+10   4.249029197839076E-1    5.767843083644923E-1
 1.061000000000000E+10   6.716721293333161E-1    2.514635652048009E-1
 1.062000000000000E+10   7.006736745335924E-1   -1.577208363522036E-1
 1.063000000000000E+10   4.981276190180099E-1   -5.194934855449140E-1
 1.064000000000000E+10   1.253846852400969E-1   -7.098311940647876E-1
 1.065000000000000E+10  -2.911635226150411E-1   -6.588015183542953E-1
 1.066000000000000E+10  -6.068048661365517E-1   -3.760245749925100E-1
 1.067000000000000E+10  -7.093314658242205E-1    3.254870489278781E-2
 1.068000000000000E+10  -5.697453485859828E-1    4.242624829547724E-1
 1.069000000000000E+10  -2.420198366473010E-1    6.708648982153399E-1
 1.070000000000000E+10   1.622690184234610E-1    6.967096764517561E-1
 1.071000000000000E+10   5.184529633727022E-1    5.012510435765850E-1
 1.072000000000000E+10   7.125678055074964E-1    1.479812719763363E-1
 1.073000000000000E+10   6.858316855559081E-1   -2.518621904226492E-1
 1.074000000000000E+10   4.477473384181253E-1   -5.741648362260896E-1
 1.075000000000000E+10   7.030558665744088E-2   -7.186738255827558E-1
 1.076000000000000E+10  -3.269010397376526E-1   -6.414181019011244E-1
 1.077000000000000E+10  -6.199099654627442E-1   -3.589199085141518E-1
 1.078000000000000E+10  -7.095829874918572E-1    4.152609272176566E-2
 1.079000000000000E+10  -5.619813093391834E-1    4.254366405307168E-1
 1.080000000000000E+10  -2.300888903232908E-1    6.631409535703950E-1
 1.081000000000000E+10   1.698991015103583E-1    6.811590124198381E-1
 1.082000000000000E+10   5.113159649842507E-1    4.809549008509210E-1
 1.083000000000000E+10   6.917057049145251E-1    1.311645814348153E-1
 1.084000000000000E+10   6.579817097369047E-1   -2.618304859024652E-1
 1.085000000000000E+10   4.172225141192215E-1   -5.766281102715850E-1
 1.086000000000000E+10   4.194449142737009E-2   -7.060180727705380E-1
 1.087000000000000E+10  -3.465183420284191E-1   -6.099489016398629E-1
 1.088000000000000E+10  -6.201148445433561E-1   -3.176105535135386E-1
 1.089000000000000E+10  -6.903457767672124E-1    7.455078481833348E-2
 1.090000000000000E+10  -5.369151931892876E-1    4.397336569687488E-1
 1.091000000000000E+10  -2.047061424133970E-1    6.609704941756445E-1
 1.092000000000000E+10   1.914838484951377E-1    6.705110361842176E-1
 1.093000000000000E+10   5.284715676152156E-1    4.663268325572335E-1
 1.094000000000000E+10   6.995528421626573E-1    1.130020073333741E-1
 1.095000000000000E+10   6.501394019314836E-1   -2.767830701966846E-1
 1.096000000000000E+10   3.991832099034358E-1   -5.850883977949763E-1
 1.097000000000000E+10   2.035850301720754E-2   -7.064276545288831E-1
 1.098000000000000E+10  -3.646749524067398E-1   -5.994019734123956E-1
 1.099000000000000E+10  -6.284771729283302E-1   -2.946258747432156E-1
 1.100000000000000E+10  -6.782341059063400E-1    1.084353153732658E-1
 1.101000000000000E+10  -5.023740895577333E-1    4.706259872960321E-1
 1.102000000000000E+10  -1.531701218603051E-1    6.706054249392387E-1
 1.103000000000000E+10   2.450335360953910E-1    6.415403225902689E-1
 1.104000000000000E+10   5.588923721629399E-1    4.009374818068159E-1
 1.105000000000000E+10   6.918108778352698E-1    2.995995313335592E-2
 1.106000000000000E+10   5.962275595881692E-1   -3.502454321312328E-1
 1.107000000000000E+10   3.038197985512877E-1   -6.189808058407603E-1
 1.108000000000000E+10  -9.456057791075097E-2   -6.805292390118280E-1
 1.109000000000000E+10  -4.612617867394936E-1   -5.056969773772128E-1
 1.110000000000000E+10  -6.645484927924877E-1   -1.548526664798827E-1
 1.111000000000000E+10  -6.247308565040268E-1    2.527394897295615E-1
 1.112000000000000E+10  -3.662652783243125E-1    5.652900520951281E-1
 1.113000000000000E+10   1.736492064684940E-2    6.793719219158888E-1
 1.114000000000000E+10   3.952230317778965E-1    5.605991935153167E-1
 1.115000000000000E+10   6.398760049994264E-1    2.512219878919763E-1
 1.116000000000000E+10   6.768229098961751E-1   -1.451824308098701E-1
 1.117000000000000E+10   4.869568521478123E-1   -4.960524745550018E-1
 1.118000000000000E+10   1.316073305244977E-1   -6.813900102236341E-1
 1.119000000000000E+10  -2.701469257700037E-1   -6.344174724163425E-1
 1.120000000000000E+10  -5.789160816578348E-1   -3.650145101817681E-1
 1.121000000000000E+10  -6.858979465156888E-1    2.768826653147576E-2
 1.122000000000000E+10  -5.511660807905544E-1    4.116653473348882E-1
 1.123000000000000E+10  -2.245996132394565E-1    6.510929840408032E-1
 1.124000000000000E+10   1.757537284201209E-1    6.674903596098707E-1
 1.125000000000000E+10   5.156343156919979E-1    4.645174955235709E-1
 1.126000000000000E+10   6.856870446710308E-1    1.133833671905119E-1
 1.127000000000000E+10   6.374030881146191E-1   -2.740410732693029E-1
 1.128000000000000E+10   3.837146278532699E-1   -5.771243715593928E-1
 1.129000000000000E+10  -1.343193291937241E-3   -6.929260614224808E-1
 1.130000000000000E+10  -3.895467959928048E-1   -5.719613751133686E-1
 1.131000000000000E+10  -6.386933005468751E-1   -2.439290690545533E-1
 1.132000000000000E+10  -6.599029718455491E-1    1.677038217066624E-1
 1.133000000000000E+10  -4.518771382448876E-1    5.160250187904561E-1
 1.134000000000000E+10  -9.326021058413718E-2    6.885290198876802E-1
 1.135000000000000E+10   2.968024421626172E-1    6.350841875604440E-1
 1.136000000000000E+10   5.980375929162444E-1    3.764239206148885E-1
 1.137000000000000E+10   7.126273087858606E-1   -3.489080084066471E-3
 1.138000000000000E+10   6.013220358714404E-1   -3.865553936224168E-1
 1.139000000000000E+10   2.945208593516477E-1   -6.476120827068911E-1
 1.140000000000000E+10  -1.110701801908777E-1   -6.950532943868571E-1
 1.141000000000000E+10  -4.791250096372134E-1   -5.105652938711619E-1
 1.142000000000000E+10  -6.801716597914306E-1   -1.501291662425492E-1
 1.143000000000000E+10  -6.435220801658977E-1    2.615888692955056E-1
 1.144000000000000E+10  -3.822610501428557E-1    5.810981810255298E-1
 1.145000000000000E+10   9.854040714271603E-3    6.997030492307879E-1
 1.146000000000000E+10   3.945655838994191E-1    5.868615579585461E-1
 1.147000000000000E+10   6.514149260536742E-1    2.813163135009678E-1
 1.148000000000000E+10   7.002455415770346E-1   -1.145348242389914E-1
 1.149000000000000E+10   5.267355182440212E-1   -4.756898818659971E-1
 1.150000000000000E+10   1.823099387172841E-1   -6.865668449783771E-1
 1.151000000000000E+10  -2.225008181018456E-1   -6.660435149390104E-1
 1.152000000000000E+10  -5.551221845287878E-1   -4.185433209126889E-1
 1.153000000000000E+10  -6.927546782338564E-1   -2.466326329092041E-2
 1.154000000000000E+10  -5.874664764544973E-1    3.735409972744483E-1
 1.155000000000000E+10  -2.843979808804952E-1    6.398553406318237E-1
 1.156000000000000E+10   1.187090263121072E-1    6.905454343069432E-1
 1.157000000000000E+10   4.803753285116153E-1    5.166859538473995E-1
 1.158000000000000E+10   6.888631993135358E-1    1.749121482323753E-1
 1.159000000000000E+10   6.746284092326150E-1   -2.267736904668576E-1
 1.160000000000000E+10   4.377776610878238E-1   -5.545527499218158E-1
 1.161000000000000E+10   5.484932385740404E-2   -7.013016170591363E-1
 1.162000000000000E+10  -3.477390224407556E-1   -6.059374198963410E-1
 1.163000000000000E+10  -6.272369597986471E-1   -2.960542662554494E-1
 1.164000000000000E+10  -6.799290003434602E-1    1.211900137546970E-1
 1.165000000000000E+10  -4.832482093802549E-1    4.943693023330288E-1
 1.166000000000000E+10  -1.200709006943031E-1    6.883598851418740E-1
 1.167000000000000E+10   2.862581985432738E-1    6.400942051134116E-1
 1.168000000000000E+10   5.928377205176315E-1    3.722413167144471E-1
 1.169000000000000E+10   6.988754683900582E-1   -1.878106198937742E-2
 1.170000000000000E+10   5.733288612135563E-1   -4.026726334519108E-1
 1.171000000000000E+10   2.550747408421410E-1   -6.452189438641805E-1
 1.172000000000000E+10  -1.507828046280882E-1   -6.693411270533133E-1
 1.173000000000000E+10  -5.057049748223372E-1   -4.595008827769149E-1
 1.174000000000000E+10  -6.806969227683864E-1   -8.472251560275298E-2
 1.175000000000000E+10  -6.113291347106415E-1    3.187760657722999E-1
 1.176000000000000E+10  -3.190810204032515E-1    6.117037994566316E-1
 1.177000000000000E+10   8.021087835161674E-2    6.874071465658493E-1
 1.178000000000000E+10   4.478103835655782E-1    5.319655217962785E-1
 1.179000000000000E+10   6.667984352238470E-1    2.028088106517384E-1
 1.180000000000000E+10   6.660637851152572E-1   -1.924032065010531E-1
 1.181000000000000E+10   4.455862730989596E-1   -5.280635764160907E-1
 1.182000000000000E+10   7.182180934564475E-2   -6.815253416727609E-1
 1.183000000000000E+10  -3.234871189137766E-1   -5.944909311437722E-1
 1.184000000000000E+10  -5.988451257529021E-1   -2.983891279774903E-1
 1.185000000000000E+10  -6.584943677748776E-1    1.010257204586944E-1
 1.186000000000000E+10  -4.877408138131737E-1    4.587677136420197E-1
 1.187000000000000E+10  -1.506493759180030E-1    6.555120201436947E-1
 1.188000000000000E+10   2.346193811686698E-1    6.328861315915660E-1
 1.189000000000000E+10   5.427245159014757E-1    4.066150538750472E-1
 1.190000000000000E+10   6.812423243292829E-1    5.377583828652390E-2
 1.191000000000000E+10   6.053868794613529E-1   -3.110502410252161E-1
 1.192000000000000E+10   3.437832813798261E-1   -5.797048691813455E-1
 1.193000000000000E+10  -2.487699870887358E-2   -6.678712742123186E-1
 1.194000000000000E+10  -3.865739906933657E-1   -5.426403531449353E-1
 1.195000000000000E+10  -6.220418112527476E-1   -2.394459000895977E-1
 1.196000000000000E+10  -6.467564270775596E-1    1.450098925692994E-1
 1.197000000000000E+10  -4.572945024351227E-1    4.797579050024475E-1
 1.198000000000000E+10  -1.191106901359581E-1    6.553366019119062E-1
 1.199000000000000E+10   2.558205507982325E-1    6.203259840174481E-1
 1.200000000000000E+10   5.505904810611721E-1    3.903719608533791E-1
 1.201000000000000E+10   6.779576064850905E-1    3.551344178916291E-2
 1.202000000000000E+10   5.957071325204796E-1   -3.344552393969590E-1
 1.203000000000000E+10   3.234186769730462E-1   -6.033148849849250E-1
 1.204000000000000E+10  -5.510454812383868E-2   -6.793324799461775E-1
 1.205000000000000E+10  -4.149509382664543E-1   -5.338881572844673E-1
 1.206000000000000E+10  -6.427031649134828E-1   -2.171309522883854E-1
 1.207000000000000E+10  -6.582015591949882E-1    1.685723956589176E-1
 1.208000000000000E+10  -4.612020437524806E-1    4.986859397215666E-1
 1.209000000000000E+10  -1.157536051364386E-1    6.693568889934658E-1
 1.210000000000000E+10   2.680086947496823E-1    6.262760058141569E-1
 1.211000000000000E+10   5.637022498056433E-1    3.913015948065713E-1
 1.212000000000000E+10   6.841659942526244E-1    3.079609566059809E-2
 1.213000000000000E+10   5.890006355146991E-1   -3.402082331268658E-1
 1.214000000000000E+10   3.068843546575052E-1   -6.031935710792771E-1
 1.215000000000000E+10  -7.414437684819897E-2   -6.730878805803110E-1
 1.216000000000000E+10  -4.293982722001461E-1   -5.186051542835982E-1
 1.217000000000000E+10  -6.439954687259835E-1   -1.924459495937549E-1
 1.218000000000000E+10  -6.443224144630012E-1    1.994888953720923E-1
 1.219000000000000E+10  -4.297419865699128E-1    5.260943549890778E-1
 1.220000000000000E+10  -7.435937380159419E-2    6.803811066366771E-1
 1.221000000000000E+10   3.104524450677084E-1    6.118944497918979E-1
 1.222000000000000E+10   5.938006514711718E-1    3.484183266400617E-1
 1.223000000000000E+10   6.897424481777547E-1   -2.340448898337169E-2
 1.224000000000000E+10   5.701294865574139E-1   -3.875926301292149E-1
 1.225000000000000E+10   2.712733963969177E-1   -6.295451011380238E-1
 1.226000000000000E+10  -1.160062726448888E-1   -6.747696819421687E-1
 1.227000000000000E+10  -4.651645412415293E-1   -5.017187260743803E-1
 1.228000000000000E+10  -6.623132825607783E-1   -1.651021025710974E-1
 1.229000000000000E+10  -6.421426527993750E-1    2.265653274173511E-1
 1.230000000000000E+10  -4.080742836138502E-1    5.462272820874838E-1
 1.231000000000000E+10  -4.239375220425945E-2    6.866455642439925E-1
 1.232000000000000E+10   3.425221558378501E-1    6.015903773314325E-1
 1.233000000000000E+10   6.178710735037213E-1    3.139847751606398E-1
 1.234000000000000E+10   6.874463376533987E-1   -8.032768083250587E-2
 1.235000000000000E+10   5.291357787467583E-1   -4.476674999495355E-1
 1.236000000000000E+10   1.979051872628782E-1   -6.626057994254243E-1
 1.237000000000000E+10  -1.972700172891712E-1   -6.604210475795521E-1
 1.238000000000000E+10  -5.286177815682512E-1   -4.419863687858510E-1
 1.239000000000000E+10  -6.870831712086155E-1   -7.576898681590595E-2
 1.240000000000000E+10  -6.169538003185894E-1    3.176677031675349E-1
 1.241000000000000E+10  -3.375080415392849E-1    6.056788343154126E-1
 1.242000000000000E+10   5.637548418232256E-2    6.915181782952500E-1
 1.243000000000000E+10   4.323167638746501E-1    5.439728565372439E-1
 1.244000000000000E+10   6.624695582921870E-1    2.111059828440070E-1
 1.245000000000000E+10   6.657495757304416E-1   -1.951971277347317E-1
 1.246000000000000E+10   4.366229733146565E-1   -5.389306780628322E-1
 1.247000000000000E+10   5.476161246517761E-2   -6.949857467345046E-1
 1.248000000000000E+10  -3.469136232161298E-1   -6.063619002993060E-1
 1.249000000000000E+10  -6.248946285313940E-1   -3.046972191398345E-1
 1.250000000000000E+10  -6.820047111232926E-1    1.012030942809251E-1
