#  HZ   S   RI   R     50.00 
! Rohde & Schwarz Vector Network Analyzer 
! Rohde-Schwarz,ZNA43-4Port,1332450044101932,2.92
! Created: UTC 6/9/2026, 6:25:28 AM
! freq[Hz]                re:S11                  im:S11
 8.000000000000000E9    -3.357134416497488E-2   -7.492467219186416E-1
 8.010000000000000E9    -4.327518408666584E-1   -6.090318533180243E-1
 8.020000000000000E9    -6.925224534249368E-1   -2.717054638961258E-1
 8.030000000000000E9    -7.252346276509997E-1    1.582863230925928E-1
 8.040000000000000E9    -5.148581120132173E-1    5.373595233457255E-1
 8.050000000000000E9    -1.350837386248954E-1    7.376676873844810E-1
 8.060000000000000E9     2.857240156750739E-1    6.956179016667843E-1
 8.070000000000000E9     6.153606773456822E-1    4.342134644831814E-1
 8.080000000000000E9     7.544566247312385E-1    3.837070937250294E-2
 8.090000000000000E9     6.603621949003178E-1   -3.717662520429924E-1
 8.100000000000000E9     3.576304454110143E-1   -6.666067575213814E-1
 8.110000000000000E9    -6.508606234350549E-2   -7.504344168022642E-1
 8.120000000000000E9    -4.673405693434776E-1   -5.878821024239778E-1
 8.130000000000000E9    -7.126951686154661E-1   -2.306980608864822E-1
 8.140000000000000E9    -7.201457474864962E-1    2.000998910532863E-1
 8.150000000000000E9    -4.905735049698989E-1    5.620323482935650E-1
 8.160000000000000E9    -9.767473511214105E-2    7.452323543640701E-1
 8.170000000000000E9     3.262481260731775E-1    6.851427984269983E-1
 8.180000000000000E9     6.465184091455410E-1    4.029061411950511E-1
 8.190000000000000E9     7.588382836764255E-1   -1.131451947763169E-2
 8.200000000000000E9     6.238269403823505E-1   -4.236647791793008E-1
 8.210000000000000E9     2.870478587981690E-1   -6.953642743288702E-1
 8.220000000000000E9    -1.469267080919818E-1   -7.300888872113650E-1
 8.230000000000000E9    -5.296274429574662E-1   -5.107984642556570E-1
 8.240000000000000E9    -7.239496880755683E-1   -1.072990696278897E-1
 8.250000000000000E9    -6.537805760484505E-1    3.390529864722650E-1
 8.260000000000000E9    -3.416107612050149E-1    6.568099866210287E-1
 8.270000000000000E9     9.958843599968444E-2    7.352150926998257E-1
 8.280000000000000E9     5.036749430997126E-1    5.456847073349053E-1
 8.290000000000000E9     7.263191433876915E-1    1.613675652505509E-1
 8.300000000000000E9     6.893247793186088E-1   -2.831558740852559E-1
 8.310000000000000E9     3.928505895725565E-1   -6.280963027703222E-1
 8.320000000000000E9    -5.966669210908158E-2   -7.356202132409241E-1
 8.330000000000000E9    -4.928500766927443E-1   -5.445737538931141E-1
 8.340000000000000E9    -7.184472543067418E-1   -1.255019928414053E-1
 8.350000000000000E9    -6.395866220249463E-1    3.414474851946338E-1
 8.360000000000000E9    -2.925662733932707E-1    6.698997412589252E-1
 8.370000000000000E9     1.746287479409717E-1    7.186137581635983E-1
 8.380000000000000E9     5.722351073947485E-1    4.769773899126151E-1
 8.390000000000000E9     7.437917832910913E-1    4.409638391799010E-2
 8.400000000000000E9     6.198889673738541E-1   -4.084857982828604E-1
 8.410000000000000E9     2.497216669000326E-1   -6.955381654733871E-1
 8.420000000000000E9    -2.218409006584468E-1   -6.938743369093374E-1
 8.430000000000000E9    -5.955453103972655E-1   -4.008257159100458E-1
 8.440000000000000E9    -7.126153378130070E-1    6.167047641498855E-2
 8.450000000000000E9    -5.235943709849219E-1    4.984159352815404E-1
 8.460000000000000E9    -1.117535918049517E-1    7.189620823238403E-1
 8.470000000000000E9     3.470429519346543E-1    6.475483539221215E-1
 8.480000000000000E9     6.694865974933626E-1    3.197158359514496E-1
 8.490000000000000E9     7.351796665185837E-1   -1.309098340618064E-1
 8.500000000000000E9     5.239864350725346E-1   -5.320562700405204E-1
 8.510000000000000E9     1.140573862449666E-1   -7.335258535588555E-1
 8.520000000000000E9    -3.396616526618322E-1   -6.577007659624217E-1
 8.530000000000000E9    -6.624632347781476E-1   -3.249160337843806E-1
 8.540000000000000E9    -7.214720345147249E-1    1.340666661914912E-1
 8.550000000000000E9    -4.994017627778724E-1    5.330310264043601E-1
 8.560000000000000E9    -9.391236497788230E-2    7.334080423586706E-1
 8.570000000000000E9     3.430708276447833E-1    6.636016326523566E-1
 8.580000000000000E9     6.591009269810272E-1    3.600305225776988E-1
 8.590000000000000E9     7.475744532489893E-1   -7.022197574251364E-2
 8.600000000000000E9     5.757761188761713E-1   -4.768811794477659E-1
 8.610000000000000E9     2.087418713030868E-1   -7.130665105555134E-1
 8.620000000000000E9    -2.307991870469602E-1   -6.947214554007773E-1
 8.630000000000000E9    -5.828459333638972E-1   -4.261878111701616E-1
 8.640000000000000E9    -7.197509060725613E-1   -3.711602711313949E-3
 8.650000000000000E9    -5.916660662390003E-1    4.209116150447115E-1
 8.660000000000000E9    -2.392875463406299E-1    6.876399111482155E-1
 8.670000000000000E9     2.016108130612189E-1    7.056628581913100E-1
 8.680000000000000E9     5.723566111013084E-1    4.702018112478146E-1
 8.690000000000000E9     7.420939095518734E-1    6.904922284199365E-2
 8.700000000000000E9     6.556740909485468E-1   -3.546934807522826E-1
 8.710000000000000E9     3.405348922044213E-1   -6.563470326697579E-1
 8.720000000000000E9    -8.954785319874789E-2   -7.287193970188197E-1
 8.730000000000000E9    -4.874346680731206E-1   -5.437054159028460E-1
 8.740000000000000E9    -7.091508254166596E-1   -1.603681096324708E-1
 8.750000000000000E9    -6.672666406015993E-1    2.835769933669599E-1
 8.760000000000000E9    -3.794583658912463E-1    6.270668169209148E-1
 8.770000000000000E9     5.067065572542690E-2    7.371274777242233E-1
 8.780000000000000E9     4.616637221279887E-1    5.797667445740071E-1
 8.790000000000000E9     7.091345545428804E-1    2.156465843496187E-1
 8.800000000000000E9     7.047059269145206E-1   -2.288078675583048E-1
 8.810000000000000E9     4.505847436782119E-1   -5.881701735730410E-1
 8.820000000000000E9     2.914088102952293E-2   -7.339924672495125E-1
 8.830000000000000E9    -4.016643471604569E-1   -6.041671684771818E-1
 8.840000000000000E9    -6.763847672497137E-1   -2.475207843815037E-1
 8.850000000000000E9    -6.946877697675639E-1    1.997628142739425E-1
 8.860000000000000E9    -4.474016326320721E-1    5.684953283847521E-1
 8.870000000000000E9    -3.594482633085373E-2    7.269940226721515E-1
 8.880000000000000E9     3.890633043552158E-1    6.230626838699850E-1
 8.890000000000000E9     6.771162187471388E-1    2.989989701139186E-1
 8.900000000000000E9     7.309629518912307E-1   -1.273381136355895E-1
 8.910000000000000E9     5.317879447213748E-1   -5.138845037235164E-1
 8.920000000000000E9     1.492599441202309E-1   -7.207065961768870E-1
 8.930000000000000E9    -2.837754808493245E-1   -6.745295791741900E-1
 8.940000000000000E9    -6.143385696623697E-1   -3.892738396688269E-1
 8.950000000000000E9    -7.225083866886026E-1    3.386116669847916E-2
 8.960000000000000E9    -5.766296018076310E-1    4.441289046725000E-1
 8.970000000000000E9    -2.284652682551551E-1    6.959638858130649E-1
 8.980000000000000E9     1.961624565650278E-1    7.073303030489085E-1
 8.990000000000000E9     5.530468483941188E-1    4.820965544198434E-1
 9.000000000000000E9     7.282385955379050E-1    9.825044922828297E-2
 9.010000000000000E9     6.671235120712725E-1   -3.115319630582113E-1
 9.020000000000000E9     3.875836987215752E-1   -6.224896673618470E-1
 9.030000000000000E9    -2.375367074312590E-2   -7.274493205921889E-1
 9.040000000000000E9    -4.274373935807698E-1   -5.837778122743961E-1
 9.050000000000000E9    -6.824421279880782E-1   -2.406112609983584E-1
 9.060000000000000E9    -6.977310117548463E-1    1.839472264366641E-1
 9.070000000000000E9    -4.768193551172740E-1    5.434815480976407E-1
 9.080000000000000E9    -9.714753608768509E-2    7.225580409688354E-1
 9.090000000000000E9     3.177187026255964E-1    6.651190023938744E-1
 9.100000000000000E9     6.318028720257385E-1    3.898510840170445E-1
 9.110000000000000E9     7.432534983285043E-1   -1.560889666780468E-2
 9.120000000000000E9     6.145501125777684E-1   -4.177645982901086E-1
 9.130000000000000E9     2.856230211421293E-1   -6.842478950037852E-1
 9.140000000000000E9    -1.370208050873045E-1   -7.261804910098988E-1
 9.150000000000000E9    -5.144944973064184E-1   -5.264508775646187E-1
 9.160000000000000E9    -7.225214840582819E-1   -1.463623641506000E-1
 9.170000000000000E9    -6.862015363519453E-1    2.837207180097959E-1
 9.180000000000000E9    -4.170989575771335E-1    6.196553529922786E-1
 9.190000000000000E9    -6.147022085843899E-3    7.484419011001681E-1
 9.200000000000000E9     4.094769755280869E-1    6.273622914884902E-1
 9.210000000000000E9     6.899789368821725E-1    2.998799724776095E-1
 9.220000000000000E9     7.395666945018580E-1   -1.292351087366616E-1
 9.230000000000000E9     5.387339547297493E-1   -5.151829019675011E-1
 9.240000000000000E9     1.514389779305761E-1   -7.229164402683009E-1
 9.250000000000000E9    -2.886582936923792E-1   -6.740188855795212E-1
 9.260000000000000E9    -6.192965928468069E-1   -3.831468290401291E-1
 9.270000000000000E9    -7.227032189195124E-1    4.581485761344055E-2
 9.280000000000000E9    -5.622687804760835E-1    4.556687555701195E-1
 9.290000000000000E9    -1.976137737105409E-1    7.001199263230157E-1
 9.300000000000000E9     2.414606065679416E-1    6.916817698083554E-1
 9.310000000000000E9     5.952305896059762E-1    4.284709995362071E-1
 9.320000000000000E9     7.330005094587909E-1    4.429759983893207E-3
 9.330000000000000E9     5.944615801033806E-1   -4.224130180054005E-1
 9.340000000000000E9     2.298697696557264E-1   -6.844782261457084E-1
 9.350000000000000E9    -2.192294335224450E-1   -6.789430433524938E-1
 9.360000000000000E9    -5.828605421945970E-1   -4.013790894919947E-1
 9.370000000000000E9    -7.073666666390708E-1    3.559492983232363E-2
 9.380000000000000E9    -5.420443585450909E-1    4.555461177838203E-1
 9.390000000000000E9    -1.553107618764987E-1    6.863650974418990E-1
 9.400000000000000E9     2.929490524405584E-1    6.351288882803285E-1
 9.410000000000000E9     6.179485201150136E-1    3.304189842199676E-1
 9.420000000000000E9     6.902546745072792E-1   -1.082783111198858E-1
 9.430000000000000E9     4.806293183686502E-1   -5.011167471642121E-1
 9.440000000000000E9     7.408256213528965E-2   -6.859521442318646E-1
 9.450000000000000E9    -3.606277151039545E-1   -5.852617101781481E-1
 9.460000000000000E9    -6.406657751489457E-1   -2.430178986904241E-1
 9.470000000000000E9    -6.554638930739420E-1    1.963458844201716E-1
 9.480000000000000E9    -4.064946372367975E-1    5.521806349928160E-1
 9.490000000000000E9    -8.644068393801152E-4    6.891812937850051E-1
 9.500000000000000E9     4.031828766228510E-1    5.634404161647371E-1
 9.510000000000000E9     6.544039016186682E-1    2.227559418178087E-1
 9.520000000000000E9     6.640378170062428E-1   -2.003074758369391E-1
 9.530000000000000E9     4.275530996491887E-1   -5.498641995879681E-1
 9.540000000000000E9     3.458403557001651E-2   -6.960165205640185E-1
 9.550000000000000E9    -3.682717411435785E-1   -5.892043164336033E-1
 9.560000000000000E9    -6.407454523000874E-1   -2.737069768087965E-1
 9.570000000000000E9    -6.884393937537296E-1    1.345245280646434E-1
 9.580000000000000E9    -5.011800178843459E-1    4.967855391253530E-1
 9.590000000000000E9    -1.446579618040170E-1    6.919955814512643E-1
 9.600000000000000E9     2.590476182306620E-1    6.563612754278437E-1
 9.610000000000000E9     5.757593888561418E-1    4.124165224765028E-1
 9.620000000000000E9     7.068207910616205E-1    3.456121764740187E-2
 9.630000000000000E9     6.093732095434055E-1   -3.546036914086308E-1
 9.640000000000000E9     3.134929874175378E-1   -6.282814430124646E-1
 9.650000000000000E9    -8.494064715352960E-2   -6.954447870254844E-1
 9.660000000000000E9    -4.500213025865513E-1   -5.350830056587604E-1
 9.670000000000000E9    -6.681931688815275E-1   -2.023054489824831E-1
 9.680000000000000E9    -6.716801228885690E-1    1.927149515249238E-1
 9.690000000000000E9    -4.656862045553082E-1    5.244367599015229E-1
 9.700000000000000E9    -1.195848771761149E-1    6.947516389158729E-1
 9.710000000000000E9     2.636373594362667E-1    6.515352814828231E-1
 9.720000000000000E9     5.675618482333465E-1    4.149593521571118E-1
 9.730000000000000E9     7.031777312687016E-1    5.401608333496993E-2
 9.740000000000000E9     6.273906725602266E-1   -3.250253237450714E-1
 9.750000000000000E9     3.599477091549392E-1   -6.053485041918673E-1
 9.760000000000000E9    -2.321379183541892E-2   -7.010409560498686E-1
 9.770000000000000E9    -3.962694728591123E-1   -5.768606557231833E-1
 9.780000000000000E9    -6.428728406537054E-1   -2.748230526790836E-1
 9.790000000000000E9    -6.900755087094003E-1    1.100066439549801E-1
 9.800000000000000E9    -5.247857549490885E-1    4.607940016187600E-1
 9.810000000000000E9    -2.028320682238439E-1    6.735360827710229E-1
 9.820000000000000E9     1.835984850939616E-1    6.837707127729360E-1
 9.830000000000000E9     5.173134209139576E-1    4.861964634091482E-1
 9.840000000000000E9     6.957359928525327E-1    1.399156192154530E-1
 9.850000000000000E9     6.632510608882163E-1   -2.515577173190210E-1
 9.860000000000000E9     4.285334351038902E-1   -5.677960055930119E-1
 9.870000000000000E9     5.716259661389569E-2   -7.086020307618407E-1
 9.880000000000000E9    -3.347843187776618E-1   -6.253416384573889E-1
 9.890000000000000E9    -6.204360546117839E-1   -3.413427266599476E-1
 9.900000000000000E9    -7.066624841565308E-1    5.162384149388632E-2
 9.910000000000000E9    -5.650374582472597E-1    4.256611795427912E-1
 9.920000000000000E9    -2.425182943477692E-1    6.623734449162656E-1
 9.930000000000000E9     1.566089740785632E-1    6.877891646689726E-1
 9.940000000000000E9     5.072967375294569E-1    4.943727836931616E-1
 9.950000000000000E9     6.980641719042140E-1    1.407201798396855E-1
 9.960000000000000E9     6.590900802517290E-1   -2.662454537794475E-1
 9.970000000000000E9     3.995468830121260E-1   -5.885967670925270E-1
 9.980000000000000E9     9.498897724762315E-4   -7.125847492013779E-1
 9.990000000000000E9    -4.001111004340303E-1   -5.902040139841628E-1
 1.000000000000000E+10  -6.624856935670883E-1   -2.611583175105219E-1
 1.001000000000000E+10  -6.928301735415192E-1    1.608401003666930E-1
 1.002000000000000E+10  -4.781788547073114E-1    5.282976150705049E-1
 1.003000000000000E+10  -8.961972534898278E-2    7.080400886863958E-1
 1.004000000000000E+10   3.346969518576883E-1    6.290894167716813E-1
 1.005000000000000E+10   6.359748462051108E-1    3.154411163024142E-1
 1.006000000000000E+10   7.024965205462056E-1   -1.151783587048967E-1
 1.007000000000000E+10   5.012037009771849E-1   -5.044762754079882E-1
 1.008000000000000E+10   1.051573989092073E-1   -7.016502690035500E-1
 1.009000000000000E+10  -3.360550941127754E-1   -6.239631617609377E-1
 1.010000000000000E+10  -6.451249844706789E-1   -2.941766707075063E-1
 1.011000000000000E+10  -6.924759200903157E-1    1.513368027465133E-1
 1.012000000000000E+10  -4.601022530220448E-1    5.369565140084712E-1
 1.013000000000000E+10  -4.274998307390161E-2    7.057663310141770E-1
 1.014000000000000E+10   3.917991520151432E-1    5.923578251093078E-1
 1.015000000000000E+10   6.723033264365934E-1    2.422120422785691E-1
 1.016000000000000E+10   6.831868959092456E-1   -2.111717342641048E-1
 1.017000000000000E+10   4.189568921282378E-1   -5.826679274660728E-1
 1.018000000000000E+10  -1.628489013416661E-2   -7.196413647881362E-1
 1.019000000000000E+10  -4.431700211603452E-1   -5.665794687813531E-1
 1.020000000000000E+10  -6.900667617120581E-1   -1.917252976795984E-1
 1.021000000000000E+10  -6.672062306929529E-1    2.557142584243592E-1
 1.022000000000000E+10  -3.909758290315772E-1    5.987095140400477E-1
 1.023000000000000E+10   2.872415767436896E-2    7.161598122007986E-1
 1.024000000000000E+10   4.375718292424536E-1    5.697520256189555E-1
 1.025000000000000E+10   6.874480706605778E-1    2.146287681772875E-1
 1.026000000000000E+10   6.908705701179833E-1   -2.174919129296806E-1
 1.027000000000000E+10   4.449847254376285E-1   -5.706976142449606E-1
 1.028000000000000E+10   4.320542724928653E-2   -7.193391403825403E-1
 1.029000000000000E+10  -3.712598757518038E-1   -6.148604145737370E-1
 1.030000000000000E+10  -6.540528926453230E-1   -2.953889668205621E-1
 1.031000000000000E+10  -7.042254867349865E-1    1.198681645413927E-1
 1.032000000000000E+10  -5.123818675122724E-1    4.915842412929597E-1
 1.033000000000000E+10  -1.479459959302411E-1    6.916946419526345E-1
 1.034000000000000E+10   2.618162772865444E-1    6.578393088117336E-1
 1.035000000000000E+10   5.830405585561480E-1    4.079654031733106E-1
 1.036000000000000E+10   7.109806646424888E-1    1.933655877688659E-2
 1.037000000000000E+10   6.065629875728593E-1   -3.762083637357362E-1
 1.038000000000000E+10   3.025042634218071E-1   -6.501886611931107E-1
 1.039000000000000E+10  -1.012830357779586E-1   -7.108501583547638E-1
 1.040000000000000E+10  -4.685627367968250E-1   -5.394328244146402E-1
 1.041000000000000E+10  -6.854995820263405E-1   -1.944030255496781E-1
 1.042000000000000E+10  -6.793018945043952E-1    2.073915588099649E-1
 1.043000000000000E+10  -4.601649382738460E-1    5.376167674212753E-1
 1.044000000000000E+10  -1.008316279754707E-1    6.974492605303594E-1
 1.045000000000000E+10   2.879598645621220E-1    6.399525586433733E-1
 1.046000000000000E+10   5.884446536528364E-1    3.881921612185456E-1
 1.047000000000000E+10   7.060874615623566E-1    1.282942476920530E-2
 1.048000000000000E+10   6.005969193460020E-1   -3.682205961934673E-1
 1.049000000000000E+10   3.038583589327317E-1   -6.323228540301008E-1
 1.050000000000000E+10  -9.042813288712258E-2   -6.945773232642040E-1
 1.051000000000000E+10  -4.489813329631543E-1   -5.343331391687546E-1
 1.052000000000000E+10  -6.631198661063793E-1   -2.047150781842906E-1
 1.053000000000000E+10  -6.648388330058498E-1    1.891127964175524E-1
 1.054000000000000E+10  -4.542464144715561E-1    5.205284574976592E-1
 1.055000000000000E+10  -1.026305284470536E-1    6.852426449685851E-1
 1.056000000000000E+10   2.784169100566254E-1    6.322479043181612E-1
 1.057000000000000E+10   5.717656445188108E-1    3.856881391168046E-1
 1.058000000000000E+10   6.909126330951902E-1    2.161646294906346E-2
 1.059000000000000E+10   5.982107984731053E-1   -3.525655644319385E-1
 1.060000000000000E+10   3.149379117910054E-1   -6.198804650043404E-1
 1.061000000000000E+10  -7.651531807747507E-2   -6.892017464714901E-1
 1.062000000000000E+10  -4.448635590246506E-1   -5.304327612886690E-1
 1.063000000000000E+10  -6.628427584851542E-1   -1.938285229395447E-1
 1.064000000000000E+10  -6.571191906224592E-1    2.042092200587445E-1
 1.065000000000000E+10  -4.345424473860959E-1    5.302587857735779E-1
 1.066000000000000E+10  -7.168523141521255E-2    6.846580685413999E-1
 1.067000000000000E+10   3.126615399262235E-1    6.191026523743668E-1
 1.068000000000000E+10   5.996825971997216E-1    3.564406929436983E-1
 1.069000000000000E+10   6.982711769997075E-1   -2.205988170416491E-2
 1.070000000000000E+10   5.735168438814618E-1   -3.967268525907284E-1
 1.071000000000000E+10   2.659086337339290E-1   -6.455060174223042E-1
 1.072000000000000E+10  -1.320009759149868E-1   -6.798858943236600E-1
 1.073000000000000E+10  -4.850397559459625E-1   -4.828186093506089E-1
 1.074000000000000E+10  -6.683001762327472E-1   -1.166863944108949E-1
 1.075000000000000E+10  -6.119398182102318E-1    2.914916492816893E-1
 1.076000000000000E+10  -3.344278915809683E-1    5.892201853101914E-1
 1.077000000000000E+10   6.452534714021015E-2    6.749539490562197E-1
 1.078000000000000E+10   4.392938044932457E-1    5.202018609735201E-1
 1.079000000000000E+10   6.608455646168403E-1    1.854750845693857E-1
 1.080000000000000E+10   6.587007468308974E-1   -2.138683039493113E-1
 1.081000000000000E+10   4.268115845718672E-1   -5.451476300931900E-1
 1.082000000000000E+10   4.569586571689876E-2   -6.917283208692673E-1
 1.083000000000000E+10  -3.552225994540396E-1   -5.947710122381834E-1
 1.084000000000000E+10  -6.281059279919443E-1   -2.833443988403580E-1
 1.085000000000000E+10  -6.711479787232068E-1    1.271426665285666E-1
 1.086000000000000E+10  -4.707026297964390E-1    4.935685039145045E-1
 1.087000000000000E+10  -1.007925427699087E-1    6.775402497041789E-1
 1.088000000000000E+10   3.055540700291421E-1    6.184430690608907E-1
 1.089000000000000E+10   6.063970387605575E-1    3.378905975180870E-1
 1.090000000000000E+10   6.938925608467090E-1   -6.698435359070214E-2
 1.091000000000000E+10   5.409612534547430E-1   -4.501378777111619E-1
 1.092000000000000E+10   1.919279260882522E-1   -6.759309460483438E-1
 1.093000000000000E+10  -2.273678826681440E-1   -6.581034060996357E-1
 1.094000000000000E+10  -5.633330164703378E-1   -3.997402510277067E-1
 1.095000000000000E+10  -6.908393645922973E-1    7.647833916192818E-3
 1.096000000000000E+10  -5.580911972863174E-1    4.060354452823954E-1
 1.097000000000000E+10  -2.187207474925192E-1    6.564167555352065E-1
 1.098000000000000E+10   2.026602932183516E-1    6.667785797209163E-1
 1.099000000000000E+10   5.522348918987040E-1    4.368780827442123E-1
 1.100000000000000E+10   7.091152530616366E-1    5.359446095196498E-2
 1.101000000000000E+10   6.181458317270691E-1   -3.534595312097142E-1
 1.102000000000000E+10   3.157525880781706E-1   -6.403054069283397E-1
 1.103000000000000E+10  -9.794134477325829E-2   -7.092060939643282E-1
 1.104000000000000E+10  -4.805462198676708E-1   -5.295797508102256E-1
 1.105000000000000E+10  -6.908523307645239E-1   -1.621979704009473E-1
 1.106000000000000E+10  -6.569832741203533E-1    2.653191049742310E-1
 1.107000000000000E+10  -3.897151279984174E-1    5.918571904425645E-1
 1.108000000000000E+10   6.858862032942684E-3    7.098134171771177E-1
 1.109000000000000E+10   3.977079462409094E-1    5.907052747769989E-1
 1.110000000000000E+10   6.591778893177741E-1    2.772448803456599E-1
 1.111000000000000E+10   7.110239788881542E-1   -1.237954360974897E-1
 1.112000000000000E+10   5.328390908629406E-1   -4.882448979589418E-1
 1.113000000000000E+10   1.787653640575969E-1   -6.954944440713775E-1
 1.114000000000000E+10  -2.360965341582787E-1   -6.723721658519277E-1
 1.115000000000000E+10  -5.730979896721421E-1   -4.222204543252795E-1
 1.116000000000000E+10  -7.064216676916341E-1   -3.096118359527631E-2
 1.117000000000000E+10  -5.991340374877514E-1    3.686253589617460E-1
 1.118000000000000E+10  -2.886386070972317E-1    6.415641361333093E-1
 1.119000000000000E+10   1.185373639739996E-1    6.970254118263927E-1
 1.120000000000000E+10   4.844368106505463E-1    5.211352535277745E-1
 1.121000000000000E+10   6.904217129245810E-1    1.731984397814320E-1
 1.122000000000000E+10   6.730662187487673E-1   -2.311828613161511E-1
 1.123000000000000E+10   4.368017484385799E-1   -5.615105514200623E-1
 1.124000000000000E+10   5.442034976751173E-2   -7.077293170561106E-1
 1.125000000000000E+10  -3.479549678791126E-1   -6.129374897219766E-1
 1.126000000000000E+10  -6.344324103129507E-1   -3.024886060311322E-1
 1.127000000000000E+10  -6.934831878999737E-1    1.167899183254258E-1
 1.128000000000000E+10  -5.042028272288834E-1    4.902640538269979E-1
 1.129000000000000E+10  -1.442240812627991E-1    6.875481618786425E-1
 1.130000000000000E+10   2.580522198896823E-1    6.534290001785822E-1
 1.131000000000000E+10   5.776670422732126E-1    4.109693985465800E-1
 1.132000000000000E+10   7.115588760679193E-1    3.750909011527333E-2
 1.133000000000000E+10   6.166378121733109E-1   -3.512093647809630E-1
 1.134000000000000E+10   3.162444038502252E-1   -6.265531240365465E-1
 1.135000000000000E+10  -9.252326599675505E-2   -6.892027055789045E-1
 1.136000000000000E+10  -4.612649201721011E-1   -5.111345900042098E-1
 1.137000000000000E+10  -6.630345277561225E-1   -1.532680074539152E-1
 1.138000000000000E+10  -6.264456075112588E-1    2.547951021788373E-1
 1.139000000000000E+10  -3.685674546486111E-1    5.695087324957330E-1
 1.140000000000000E+10   1.676161661596463E-2    6.851876156368190E-1
 1.141000000000000E+10   3.941010098746022E-1    5.662610870760675E-1
 1.142000000000000E+10   6.436752693399935E-1    2.598157340356934E-1
 1.143000000000000E+10   6.837577056619990E-1   -1.326435672106059E-1
 1.144000000000000E+10   5.014817897262347E-1   -4.821512163881012E-1
 1.145000000000000E+10   1.550654311376083E-1   -6.729838507087151E-1
 1.146000000000000E+10  -2.476286668998953E-1   -6.361884332055515E-1
 1.147000000000000E+10  -5.626785011078042E-1   -3.798182736984410E-1
 1.148000000000000E+10  -6.774761251574184E-1    9.808712869089551E-3
 1.149000000000000E+10  -5.503386931587581E-1    3.928598928294815E-1
 1.150000000000000E+10  -2.315682050314786E-1    6.332965277050012E-1
 1.151000000000000E+10   1.680684619343430E-1    6.604372228391231E-1
 1.152000000000000E+10   5.063127085712718E-1    4.657705613273309E-1
 1.153000000000000E+10   6.795721183572800E-1    1.209798145765122E-1
 1.154000000000000E+10   6.347945053098766E-1   -2.657816848625331E-1
 1.155000000000000E+10   3.795650108550454E-1   -5.703471487007719E-1
 1.156000000000000E+10   8.492861479763771E-4   -6.831604081082119E-1
 1.157000000000000E+10  -3.795715391198461E-1   -5.609671320313087E-1
 1.158000000000000E+10  -6.254872908325253E-1   -2.441350582455588E-1
 1.159000000000000E+10  -6.522977424117027E-1    1.555032579460551E-1
 1.160000000000000E+10  -4.537152529331939E-1    5.024002635524296E-1
 1.161000000000000E+10  -1.002035595594374E-1    6.722020602922810E-1
 1.162000000000000E+10   2.860417131126650E-1    6.217700471868781E-1
 1.163000000000000E+10   5.812343821740878E-1    3.714372967973518E-1
 1.164000000000000E+10   6.936875917044047E-1    3.547467437489099E-3
 1.165000000000000E+10   5.904943008510011E-1   -3.657644186586826E-1
 1.166000000000000E+10   2.966780690765874E-1   -6.211711541296133E-1
 1.167000000000000E+10  -9.172409089835316E-2   -6.795390332170527E-1
 1.168000000000000E+10  -4.520701858751943E-1   -5.164300139959561E-1
 1.169000000000000E+10  -6.631162623376770E-1   -1.789723147225078E-1
 1.170000000000000E+10  -6.477271568236128E-1    2.205377467737344E-1
 1.171000000000000E+10  -4.147586998613084E-1    5.526331312060639E-1
 1.172000000000000E+10  -4.107413223759233E-2    6.985634620307223E-1
 1.173000000000000E+10   3.451227347904557E-1    6.139619308805411E-1
 1.174000000000000E+10   6.185991334408411E-1    3.331176144255257E-1
 1.175000000000000E+10   6.954917577269014E-1   -5.243678931692770E-2
 1.176000000000000E+10   5.596050850224983E-1   -4.173960759487367E-1
 1.177000000000000E+10   2.435252483749246E-1   -6.525966135109620E-1
 1.178000000000000E+10  -1.562696719183963E-1   -6.742100746272326E-1
 1.179000000000000E+10  -5.037547892065289E-1   -4.668922144730429E-1
 1.180000000000000E+10  -6.776502018964843E-1   -1.011162352826559E-1
 1.181000000000000E+10  -6.176960344685569E-1    2.947790553422139E-1
 1.182000000000000E+10  -3.524197238596544E-1    5.887695832758703E-1
 1.183000000000000E+10   2.621219033006789E-2    6.911806373764097E-1
 1.184000000000000E+10   3.979919225183812E-1    5.745532051610670E-1
 1.185000000000000E+10   6.470833634205572E-1    2.782653333546471E-1
 1.186000000000000E+10   6.927793788619018E-1   -1.073153483624331E-1
 1.187000000000000E+10   5.233295279670298E-1   -4.606268634131220E-1
 1.188000000000000E+10   1.874605915955385E-1   -6.682637996799670E-1
 1.189000000000000E+10  -2.104362143537035E-1   -6.580327165208391E-1
 1.190000000000000E+10  -5.380892724215727E-1   -4.249832187318941E-1
 1.191000000000000E+10  -6.798766129771336E-1   -3.889319099323055E-2
 1.192000000000000E+10  -5.810743501444775E-1    3.599224835307538E-1
 1.193000000000000E+10  -2.760972587515847E-1    6.307012638775852E-1
 1.194000000000000E+10   1.247074756879257E-1    6.802997175228509E-1
 1.195000000000000E+10   4.822366947666140E-1    4.969266789320978E-1
 1.196000000000000E+10   6.813488519805095E-1    1.495702407145189E-1
 1.197000000000000E+10   6.543553630764938E-1   -2.494941291092936E-1
 1.198000000000000E+10   4.076390442153550E-1   -5.688766997877110E-1
 1.199000000000000E+10   1.817414361586123E-2   -6.964640244955319E-1
 1.200000000000000E+10  -3.806798661874298E-1   -5.790487884090703E-1
 1.201000000000000E+10  -6.412855068994538E-1   -2.577676310065336E-1
 1.202000000000000E+10  -6.696011302401853E-1    1.559117874238029E-1
 1.203000000000000E+10  -4.581528083448570E-1    5.103584966492318E-1
 1.204000000000000E+10  -8.604069897623239E-2    6.830683652027518E-1
 1.205000000000000E+10   3.173033332436242E-1    6.171861120152540E-1
 1.206000000000000E+10   6.076440638960734E-1    3.351630336546786E-1
 1.207000000000000E+10   6.910192552953758E-1   -6.658005828549707E-2
 1.208000000000000E+10   5.312780330098430E-1   -4.478828484627660E-1
 1.209000000000000E+10   1.829337054880301E-1   -6.700625670278268E-1
 1.210000000000000E+10  -2.286469727771673E-1   -6.525380124086060E-1
 1.211000000000000E+10  -5.612754303257752E-1   -3.953279715735351E-1
 1.212000000000000E+10  -6.877084175269010E-1    2.971707877019870E-3
 1.213000000000000E+10  -5.652202924094405E-1    3.983726832545291E-1
 1.214000000000000E+10  -2.412908625006598E-1    6.494181984745533E-1
 1.215000000000000E+10   1.643700901202668E-1    6.696196183563298E-1
 1.216000000000000E+10   5.132411770486660E-1    4.635209095706543E-1
 1.217000000000000E+10   6.826732148847856E-1    1.007042603625748E-1
 1.218000000000000E+10   6.196643257575464E-1   -2.913860711849173E-1
 1.219000000000000E+10   3.484115438298243E-1   -5.805301156169832E-1
 1.220000000000000E+10  -3.948015379026255E-2   -6.683604474824700E-1
 1.221000000000000E+10  -4.069373768224165E-1   -5.253290891893887E-1
 1.222000000000000E+10  -6.290266195291648E-1   -1.979441763666227E-1
 1.223000000000000E+10  -6.258693125807282E-1    1.974955325347484E-1
 1.224000000000000E+10  -4.011074508701883E-1    5.200763805751567E-1
 1.225000000000000E+10  -3.726233803518031E-2    6.598954509474286E-1
 1.226000000000000E+10   3.357056920028550E-1    5.661798337190450E-1
 1.227000000000000E+10   5.928261290771200E-1    2.824806024511054E-1
 1.228000000000000E+10   6.502713990675144E-1   -9.412697771815219E-2
 1.229000000000000E+10   4.910851921591315E-1   -4.371061998292549E-1
 1.230000000000000E+10   1.714402030718639E-1   -6.324901138687045E-1
 1.231000000000000E+10  -2.072425045745752E-1   -6.145474540934645E-1
 1.232000000000000E+10  -5.115096130552126E-1   -3.937083167653216E-1
 1.233000000000000E+10  -6.444721794724971E-1   -4.519887933320155E-2
 1.234000000000000E+10  -5.635581255292414E-1    3.183571282474180E-1
 1.235000000000000E+10  -2.921515061714385E-1    5.759312434731615E-1
 1.236000000000000E+10   7.831883854969723E-2    6.445308344312624E-1
 1.237000000000000E+10   4.241820463985354E-1    4.951984514793651E-1
 1.238000000000000E+10   6.270453159469785E-1    1.789665983991942E-1
 1.239000000000000E+10   6.199874507220412E-1   -1.957013313627305E-1
 1.240000000000000E+10   4.070489408253206E-1   -5.048224809460885E-1
 1.241000000000000E+10   6.373786943873444E-2   -6.468072330796012E-1
 1.242000000000000E+10  -3.009095637041738E-1   -5.763593726422818E-1
 1.243000000000000E+10  -5.673771156760994E-1   -3.169969873942362E-1
 1.244000000000000E+10  -6.488027354979333E-1    4.566458686883453E-2
 1.245000000000000E+10  -5.207098459922136E-1    3.935211666835408E-1
 1.246000000000000E+10  -2.276848730061587E-1    6.099704150135575E-1
 1.247000000000000E+10   1.377802156506338E-1    6.324366484827251E-1
 1.248000000000000E+10   4.595575303432548E-1    4.542353751448247E-1
 1.249000000000000E+10   6.357618880053344E-1    1.302800949070249E-1
 1.250000000000000E+10   6.079045894882441E-1   -2.370296247336545E-1
