#  HZ   S   RI   R     50.00 
! Rohde & Schwarz Vector Network Analyzer 
! Rohde-Schwarz,ZNA43-4Port,1332450044101932,2.92
! Created: UTC 6/9/2026, 6:27:47 AM
! freq[Hz]                re:S11                  im:S11
 8.000000000000000E9    -3.799925670833494E-3   -2.300942611941243E-1
 8.010000000000000E9    -1.231644226149976E-1   -2.125995161469396E-1
 8.020000000000000E9    -2.250944351390731E-1   -1.263154415081213E-1
 8.030000000000000E9    -2.705121179695782E-1    1.376576332682622E-2
 8.040000000000000E9    -2.329272898659980E-1    1.691239781134238E-1
 8.050000000000000E9    -1.131305435872537E-1    2.886995231100747E-1
 8.060000000000000E9     5.617447457775668E-2    3.220506200427254E-1
 8.070000000000000E9     2.252461733747970E-1    2.569416598015682E-1
 8.080000000000000E9     3.386264776687011E-1    1.066820040891525E-1
 8.090000000000000E9     3.560622331746026E-1   -8.650443931367971E-2
 8.100000000000000E9     2.658185949565800E-1   -2.630215291564476E-1
 8.110000000000000E9     8.522492564414977E-2   -3.649006550782616E-1
 8.120000000000000E9    -1.262685194718553E-1   -3.541777929739853E-1
 8.130000000000000E9    -3.004265472842496E-1   -2.295660686965268E-1
 8.140000000000000E9    -3.793073631507145E-1   -2.943677275117202E-2
 8.150000000000000E9    -3.363112932805353E-1    1.819041182177392E-1
 8.160000000000000E9    -1.819759687297651E-1    3.446433156083171E-1
 8.170000000000000E9     3.230132943484115E-2    3.981764148469370E-1
 8.180000000000000E9     2.390233674030058E-1    3.271833729018495E-1
 8.190000000000000E9     3.729922369336116E-1    1.547904448900023E-1
 8.200000000000000E9     3.917520003451668E-1   -6.427747179080398E-2
 8.210000000000000E9     2.970923922249404E-1   -2.592862290739067E-1
 8.220000000000000E9     1.129829978638549E-1   -3.678360294903266E-1
 8.230000000000000E9    -9.972871075806991E-2   -3.561882485101697E-1
 8.240000000000000E9    -2.715844130567875E-1   -2.290679839833965E-1
 8.250000000000000E9    -3.466370658178142E-1   -2.894602469803885E-2
 8.260000000000000E9    -2.997248799898694E-1    1.672828028286888E-1
 8.270000000000000E9    -1.526607418987717E-1    3.022955970103587E-1
 8.280000000000000E9     4.124988643387893E-2    3.318699728384149E-1
 8.290000000000000E9     2.145050566659824E-1    2.510720055482010E-1
 8.300000000000000E9     3.101164306195459E-1    9.185149107226784E-2
 8.310000000000000E9     2.892754271503979E-1   -8.324977038777229E-2
 8.320000000000000E9     1.888164054394585E-1   -2.101538448688905E-1
 8.330000000000000E9     3.667917470343463E-2   -2.620545922216730E-1
 8.340000000000000E9    -1.120224564777648E-1   -2.174927118882970E-1
 8.350000000000000E9    -2.009363578864991E-1   -9.981635434315583E-2
 8.360000000000000E9    -2.037042325860776E-1    4.773330491200103E-2
 8.370000000000000E9    -1.249992841005748E-1    1.610822437384866E-1
 8.380000000000000E9    -3.082380916375980E-3    2.016440143959876E-1
 8.390000000000000E9     1.108991498867053E-1    1.617604949627897E-1
 8.400000000000000E9     1.734930650362499E-1    6.462878502430720E-2
 8.410000000000000E9     1.711242866825791E-1   -4.390637325811313E-2
 8.420000000000000E9     1.056902644829422E-1   -1.205209287829535E-1
 8.430000000000000E9     1.117619466014645E-2   -1.361700369829048E-1
 8.440000000000000E9    -6.905219218201757E-2   -8.898553376326174E-2
 8.450000000000000E9    -1.007182282175114E-1   -3.857818616865002E-3
 8.460000000000000E9    -6.902711553001267E-2    7.210198699772291E-2
 8.470000000000000E9     5.224591118363428E-3    1.083628269795009E-1
 8.480000000000000E9     8.614816693303179E-2    8.739877629726253E-2
 8.490000000000000E9     1.350535249685203E-1    1.857841665914168E-2
 8.500000000000000E9     1.281914713533257E-1   -6.655365056161609E-2
 8.510000000000000E9     6.141113544467810E-2   -1.312151523639779E-1
 8.520000000000000E9    -3.443207177765945E-2   -1.412239287241023E-1
 8.530000000000000E9    -1.187189220446152E-1   -8.770920369476408E-2
 8.540000000000000E9    -1.527070537773840E-1    1.040093281410981E-2
 8.550000000000000E9    -1.174726921666715E-1    1.130011933870065E-1
 8.560000000000000E9    -2.627180174747926E-2    1.828516972663198E-1
 8.570000000000000E9     9.029352531340110E-2    1.833714486953914E-1
 8.580000000000000E9     1.866670414056029E-1    1.115162365674084E-1
 8.590000000000000E9     2.237547811960372E-1   -8.325533817379183E-3
 8.600000000000000E9     1.836680358658367E-1   -1.326606137494734E-1
 8.610000000000000E9     8.272720988424778E-2   -2.097776874229468E-1
 8.620000000000000E9    -4.843363544028226E-2   -2.120940094689006E-1
 8.630000000000000E9    -1.602848925155913E-1   -1.354796427858936E-1
 8.640000000000000E9    -2.097900048437303E-1   -5.949927225912005E-3
 8.650000000000000E9    -1.768564258731328E-1    1.297163559002442E-1
 8.660000000000000E9    -6.601417706346460E-2    2.166995491147562E-1
 8.670000000000000E9     7.722587166128558E-2    2.244653109066093E-1
 8.680000000000000E9     2.004015327645940E-1    1.479995591061783E-1
 8.690000000000000E9     2.575136188977443E-1    1.411606696581671E-2
 8.700000000000000E9     2.267108398489279E-1   -1.283307486451329E-1
 8.710000000000000E9     1.143728558908808E-1   -2.298595409865473E-1
 8.720000000000000E9    -3.635098761698605E-2   -2.491103519993478E-1
 8.730000000000000E9    -1.711659509837142E-1   -1.774318102054988E-1
 8.740000000000000E9    -2.393235810426589E-1   -3.941557255055031E-2
 8.750000000000000E9    -2.130861457854990E-1    1.139965092856772E-1
 8.760000000000000E9    -1.048471257189392E-1    2.286166842596881E-1
 8.770000000000000E9     4.897125681000700E-2    2.565007521819228E-1
 8.780000000000000E9     1.896744578117079E-1    1.872325511689822E-1
 8.790000000000000E9     2.638456276120723E-1    4.623130456829435E-2
 8.800000000000000E9     2.418487533358000E-1   -1.149371181182967E-1
 8.810000000000000E9     1.335932152288266E-1   -2.302298287626085E-1
 8.820000000000000E9    -2.550845314392498E-2   -2.584640893090502E-1
 8.830000000000000E9    -1.739302129739790E-1   -1.854122657591279E-1
 8.840000000000000E9    -2.532443571688642E-1   -3.696511853405451E-2
 8.850000000000000E9    -2.318691900981453E-1    1.313499766299140E-1
 8.860000000000000E9    -1.110998887117922E-1    2.528771037087481E-1
 8.870000000000000E9     6.068669349752270E-2    2.828095756491562E-1
 8.880000000000000E9     2.205423923574040E-1    2.077263852188956E-1
 8.890000000000000E9     3.092180233352665E-1    5.322650752491291E-2
 8.900000000000000E9     2.930136848461476E-1   -1.255197220594708E-1
 8.910000000000000E9     1.726447084132949E-1   -2.684757544567554E-1
 8.920000000000000E9    -9.295209349948645E-3   -3.182525117953624E-1
 8.930000000000000E9    -1.889457962742990E-1   -2.546951518018827E-1
 8.940000000000000E9    -3.011930896784854E-1   -9.793212340698554E-2
 8.950000000000000E9    -3.036575835392256E-1    9.719879903893357E-2
 8.960000000000000E9    -1.987553188611367E-1    2.639051872363178E-1
 8.970000000000000E9    -1.832436316540153E-2    3.402779879058985E-1
 8.980000000000000E9     1.742761696234641E-1    3.000341785583433E-1
 8.990000000000000E9     3.128142740279208E-1    1.571002064361130E-1
 9.000000000000000E9     3.503297141527528E-1   -4.096949123017941E-2
 9.010000000000000E9     2.744122556590922E-1   -2.211932562013929E-1
 9.020000000000000E9     1.078118133284674E-1   -3.290714391853294E-1
 9.030000000000000E9    -9.395759154427942E-2   -3.254422003437584E-1
 9.040000000000000E9    -2.611538711799058E-1   -2.096606910587768E-1
 9.050000000000000E9    -3.361638602329837E-1   -2.201260505018284E-2
 9.060000000000000E9    -2.889596328547246E-1    1.730941046355142E-1
 9.070000000000000E9    -1.420481895784366E-1    3.091208533905355E-1
 9.080000000000000E9     5.434662044869034E-2    3.416675814914757E-1
 9.090000000000000E9     2.344874435447259E-1    2.611380056459216E-1
 9.100000000000000E9     3.381267496038067E-1    9.613421451025297E-2
 9.110000000000000E9     3.311524467006427E-1   -1.009767663280408E-1
 9.120000000000000E9     2.176296387308781E-1   -2.597514533397913E-1
 9.130000000000000E9     3.759459059244619E-2   -3.275635702829136E-1
 9.140000000000000E9    -1.465622965126840E-1   -2.835719051727090E-1
 9.150000000000000E9    -2.718233941980386E-1   -1.455081524240501E-1
 9.160000000000000E9    -3.013088127912104E-1    3.882521540572197E-2
 9.170000000000000E9    -2.243210446629350E-1    2.013845254649504E-1
 9.180000000000000E9    -7.272517402882850E-2    2.873023871769251E-1
 9.190000000000000E9     9.674768908570150E-2    2.705643867083659E-1
 9.200000000000000E9     2.240409253097979E-1    1.623388273002359E-1
 9.210000000000000E9     2.654888618846398E-1    1.142642435559371E-2
 9.220000000000000E9     2.123467659050358E-1   -1.296229130477205E-1
 9.230000000000000E9     9.056905476470969E-2   -2.093992639510897E-1
 9.240000000000000E9    -4.954596023819555E-2   -2.020790379614414E-1
 9.250000000000000E9    -1.531383856179350E-1   -1.170582854713128E-1
 9.260000000000000E9    -1.784704308776721E-1    5.674344748939635E-3
 9.270000000000000E9    -1.255698347568631E-1    1.135684804715093E-1
 9.280000000000000E9    -2.225271347492720E-2    1.634411642944026E-1
 9.290000000000000E9     8.427744512519955E-2    1.387497498803558E-1
 9.300000000000000E9     1.473928024870370E-1    5.520032613991780E-2
 9.310000000000000E9     1.406911376833617E-1   -5.040688512968482E-2
 9.320000000000000E9     6.876064543615532E-2   -1.252028391057679E-1
 9.330000000000000E9    -3.381596214003481E-2   -1.344585694023955E-1
 9.340000000000000E9    -1.181245834992402E-1   -7.302734540936770E-2
 9.350000000000000E9    -1.424592608453529E-1    3.229653728726904E-2
 9.360000000000000E9    -9.699308274328117E-2    1.355923131104618E-1
 9.370000000000000E9     7.724350447017303E-3    1.853946963120724E-1
 9.380000000000000E9     1.275571694956556E-1    1.541602829302240E-1
 9.390000000000000E9     2.094007229261752E-1    4.796900514864817E-2
 9.400000000000000E9     2.136058479216680E-1   -9.477598889094428E-2
 9.410000000000000E9     1.260518580517224E-1   -2.126673262705505E-1
 9.420000000000000E9    -2.348333763789774E-2   -2.587210955511853E-1
 9.430000000000000E9    -1.806464477542440E-1   -2.061302097285353E-1
 9.440000000000000E9    -2.837265460114562E-1   -6.603854058967347E-2
 9.450000000000000E9    -2.885047976077620E-1    1.146284456954045E-1
 9.460000000000000E9    -1.819565660500074E-1    2.718281859059054E-1
 9.470000000000000E9     5.435780037415623E-4    3.446183371155264E-1
 9.480000000000000E9     1.981835335907634E-1    3.021647363787224E-1
 9.490000000000000E9     3.429116011403699E-1    1.530177177839480E-1
 9.500000000000000E9     3.817009077634126E-1   -5.730178236171671E-2
 9.510000000000000E9     2.943240758893265E-1   -2.648574422925922E-1
 9.520000000000000E9     1.041044065721879E-1   -3.935245768145385E-1
 9.530000000000000E9    -1.292217678935642E-1   -3.959229967160047E-1
 9.540000000000000E9    -3.286626485623598E-1   -2.669524128199470E-1
 9.550000000000000E9    -4.276457138039004E-1   -4.510685185125709E-2
 9.560000000000000E9    -3.954381536277408E-1    1.972010724654464E-1
 9.570000000000000E9    -2.361513146272978E-1    3.852091520800321E-1
 9.580000000000000E9     2.669817204084313E-3    4.580486078796880E-1
 9.590000000000000E9     2.465662347314252E-1    3.894161054629243E-1
 9.600000000000000E9     4.178756551712663E-1    1.984961434414190E-1
 9.610000000000000E9     4.611883473781453E-1   -5.199964722049989E-2
 9.620000000000000E9     3.613666568657282E-1   -2.889683239594131E-1
 9.630000000000000E9     1.473059011396222E-1   -4.363854925183477E-1
 9.640000000000000E9    -1.143561471953337E-1   -4.452955025584106E-1
 9.650000000000000E9    -3.398112211704498E-1   -3.117580820192368E-1
 9.660000000000000E9    -4.542390576585241E-1   -7.858397292617120E-2
 9.670000000000000E9    -4.257726854290054E-1    1.793641009993966E-1
 9.680000000000000E9    -2.651888271674265E-1    3.809052604219021E-1
 9.690000000000000E9    -2.468087449440714E-2    4.653031230745007E-1
 9.700000000000000E9     2.211044250410484E-1    4.095257487132858E-1
 9.710000000000000E9     3.992168388245006E-1    2.270703215780086E-1
 9.720000000000000E9     4.537105623244732E-1   -2.018183962870605E-2
 9.730000000000000E9     3.682847140146527E-1   -2.558210767179100E-1
 9.740000000000000E9     1.707580501216431E-1   -4.054240639423926E-1
 9.750000000000000E9    -7.396302435216344E-2   -4.216806011588752E-1
 9.760000000000000E9    -2.897320304782953E-1   -3.041986029426641E-1
 9.770000000000000E9    -4.028313010181752E-1   -9.300240807085430E-2
 9.780000000000000E9    -3.816354925025786E-1    1.400964972604004E-1
 9.790000000000000E9    -2.380094207987908E-1    3.196815860039232E-1
 9.800000000000000E9    -2.194557178966198E-2    3.892170264063626E-1
 9.810000000000000E9     1.900377926556716E-1    3.331903455707158E-1
 9.820000000000000E9     3.314686911878867E-1    1.714304270404304E-1
 9.830000000000000E9     3.567643133971714E-1   -3.763126390379118E-2
 9.840000000000000E9     2.617399357297886E-1   -2.204861024098759E-1
 9.850000000000000E9     8.425240648049394E-2   -3.149890682575792E-1
 9.860000000000000E9    -1.052141687430986E-1   -2.902514239553481E-1
 9.870000000000000E9    -2.404607886117738E-1   -1.635360596699938E-1
 9.880000000000000E9    -2.744137560842709E-1    1.184247581429472E-2
 9.890000000000000E9    -2.015065301205422E-1    1.662049372819460E-1
 9.900000000000000E9    -5.849009177428509E-2    2.420418899825051E-1
 9.910000000000000E9     9.567027388841773E-2    2.121747054762753E-1
 9.920000000000000E9     1.954812295806435E-1    9.892543717393659E-2
 9.930000000000000E9     2.030851062160273E-1   -4.538187638394140E-2
 9.940000000000000E9     1.203954927558135E-1   -1.570182614568182E-1
 9.950000000000000E9    -1.175056708679799E-2   -1.871200297507561E-1
 9.960000000000000E9    -1.350362854865322E-1   -1.268837078788754E-1
 9.970000000000000E9    -1.884917036731179E-1   -2.377786866024392E-3
 9.980000000000000E9    -1.472727299973016E-1    1.274984347994608E-1
 9.990000000000000E9    -2.880275888189536E-2    2.016341836271478E-1
 1.000000000000000E+10   1.154618861157070E-1    1.827941383268042E-1
 1.001000000000000E+10   2.175823063374228E-1    7.802345616093397E-2
 1.002000000000000E+10   2.326355398138147E-1   -7.582087954136987E-2
 1.003000000000000E+10   1.460408565487572E-1   -2.135300014083817E-1
 1.004000000000000E+10  -1.323904081656288E-2   -2.744308161764797E-1
 1.005000000000000E+10  -1.846066662744670E-1   -2.271212771182011E-1
 1.006000000000000E+10  -2.958585078414945E-1   -8.060710865272394E-2
 1.007000000000000E+10  -3.021908945243205E-1    1.116053583065103E-1
 1.008000000000000E+10  -1.932331001350379E-1    2.783054427067111E-1
 1.009000000000000E+10  -3.649743271561273E-3    3.547024598874288E-1
 1.010000000000000E+10   2.001438048215476E-1    3.085560325439699E-1
 1.011000000000000E+10   3.497364171959542E-1    1.479407442018568E-1
 1.012000000000000E+10   3.856546596984865E-1   -7.321950870632514E-2
 1.013000000000000E+10   2.906415845271034E-1   -2.807085605304986E-1
 1.014000000000000E+10   9.197206495411535E-2   -4.019407351828617E-1
 1.015000000000000E+10  -1.454128634268320E-1   -3.910656076812296E-1
 1.016000000000000E+10  -3.445152092031188E-1   -2.515647115423322E-1
 1.017000000000000E+10  -4.335889361760650E-1   -2.315622786720643E-2
 1.018000000000000E+10  -3.816644682178047E-1    2.184609966613962E-1
 1.019000000000000E+10  -2.045990423030919E-1    3.945898365157703E-1
 1.020000000000000E+10   4.288151941227849E-2    4.480985167443221E-1
 1.021000000000000E+10   2.797396608602512E-1    3.611352695691147E-1
 1.022000000000000E+10   4.337265265068679E-1    1.573319793892027E-1
 1.023000000000000E+10   4.532655180643881E-1   -1.010363341606165E-1
 1.024000000000000E+10   3.287081791023513E-1   -3.317759166816794E-1
 1.025000000000000E+10   9.769116635055333E-2   -4.601539502849196E-1
 1.026000000000000E+10  -1.637797403959592E-1   -4.384320537646345E-1
 1.027000000000000E+10  -3.728466305111273E-1   -2.780975194996931E-1
 1.028000000000000E+10  -4.631242236874137E-1   -2.971313536933094E-2
 1.029000000000000E+10  -4.051355143606651E-1    2.281831261662646E-1
 1.030000000000000E+10  -2.173281912009299E-1    4.123449296301738E-1
 1.031000000000000E+10   4.307167537147966E-2    4.619092744281589E-1
 1.032000000000000E+10   2.890443902950490E-1    3.632972985256825E-1
 1.033000000000000E+10   4.420435518728036E-1    1.488827625229929E-1
 1.034000000000000E+10   4.543226589056006E-1   -1.126914228478125E-1
 1.035000000000000E+10   3.213511640995941E-1   -3.378407830576441E-1
 1.036000000000000E+10   8.462755409198669E-2   -4.577432385548528E-1
 1.037000000000000E+10  -1.776918485650768E-1   -4.288825800991652E-1
 1.038000000000000E+10  -3.788561088617213E-1   -2.612963177246021E-1
 1.039000000000000E+10  -4.528013304921358E-1   -1.275169385787712E-2
 1.040000000000000E+10  -3.779244994069417E-1    2.331543757081523E-1
 1.041000000000000E+10  -1.860576622039936E-1    3.984345879669792E-1
 1.042000000000000E+10   6.178166093371897E-2    4.294975798289745E-1
 1.043000000000000E+10   2.836510919843135E-1    3.188857195650806E-1
 1.044000000000000E+10   4.061433196620176E-1    1.042849875700095E-1
 1.045000000000000E+10   3.882106475889430E-1   -1.411190972669149E-1
 1.046000000000000E+10   2.383447968805970E-1   -3.282547025193955E-1
 1.047000000000000E+10   9.414602646066214E-3   -3.956484234388871E-1
 1.048000000000000E+10  -2.152583336095004E-1   -3.211428537666784E-1
 1.049000000000000E+10  -3.559330776827686E-1   -1.345173932061470E-1
 1.050000000000000E+10  -3.649119519575112E-1    9.491836965290883E-2
 1.051000000000000E+10  -2.372054829287741E-1    2.816796161503338E-1
 1.052000000000000E+10  -2.786067040496312E-2    3.616943748422678E-1
 1.053000000000000E+10   1.861090321462215E-1    3.078230326404712E-1
 1.054000000000000E+10   3.262680470010150E-1    1.432501815511979E-1
 1.055000000000000E+10   3.426773051200391E-1   -6.877488225632702E-2
 1.056000000000000E+10   2.299806092467309E-1   -2.533769082737114E-1
 1.057000000000000E+10   3.212479141364145E-2   -3.351386558615149E-1
 1.058000000000000E+10  -1.738900431679815E-1   -2.820314859803506E-1
 1.059000000000000E+10  -3.047742256129307E-1   -1.151113463855487E-1
 1.060000000000000E+10  -3.072160654902678E-1    9.682770201778963E-2
 1.061000000000000E+10  -1.869484112538492E-1    2.685556287495143E-1
 1.062000000000000E+10   1.157889889987291E-2    3.322430420135721E-1
 1.063000000000000E+10   2.092704721830773E-1    2.641030664188793E-1
 1.064000000000000E+10   3.292361629230313E-1    9.004311106628864E-2
 1.065000000000000E+10   3.230760235267031E-1   -1.242749314656024E-1
 1.066000000000000E+10   1.899139534418291E-1   -2.901741878265894E-1
 1.067000000000000E+10  -2.127040347872640E-2   -3.440823920601691E-1
 1.068000000000000E+10  -2.270198480644290E-1   -2.592889748190512E-1
 1.069000000000000E+10  -3.435587544633218E-1   -6.588932243346757E-2
 1.070000000000000E+10  -3.220793039729101E-1    1.609485320840158E-1
 1.071000000000000E+10  -1.624923219535328E-1    3.313423874175849E-1
 1.072000000000000E+10   6.961350444751856E-2    3.786721569656126E-1
 1.073000000000000E+10   2.881946285012407E-1    2.823812402320959E-1
 1.074000000000000E+10   4.115267199642406E-1    7.619742329126510E-2
 1.075000000000000E+10   3.929520656785757E-1   -1.660136915117019E-1
 1.076000000000000E+10   2.374052716801367E-1   -3.635635372160142E-1
 1.077000000000000E+10  -4.714231463483089E-3   -4.391372905810428E-1
 1.078000000000000E+10  -2.503568350058318E-1   -3.623790085508370E-1
 1.079000000000000E+10  -4.104523547468200E-1   -1.550263673896426E-1
 1.080000000000000E+10  -4.228189995615034E-1    1.108185581296326E-1
 1.081000000000000E+10  -2.860262970824043E-1    3.384662891695054E-1
 1.082000000000000E+10  -4.302738392905932E-2    4.468915066286925E-1
 1.083000000000000E+10   2.194153191971209E-1    3.991314467025732E-1
 1.084000000000000E+10   4.122867646640801E-1    2.123257101972286E-1
 1.085000000000000E+10   4.705849197035449E-1   -5.262746838389967E-2
 1.086000000000000E+10   3.696911584082447E-1   -3.020218215880791E-1
 1.087000000000000E+10   1.434666971611889E-1   -4.553608773278628E-1
 1.088000000000000E+10  -1.333719951166082E-1   -4.570841163064153E-1
 1.089000000000000E+10  -3.661303028424400E-1   -3.039626006514325E-1
 1.090000000000000E+10  -4.751769502980763E-1   -4.714047687390398E-2
 1.091000000000000E+10  -4.152007987252901E-1    2.281651441763214E-1
 1.092000000000000E+10  -2.139879223699323E-1    4.265287377373451E-1
 1.093000000000000E+10   6.227714205868677E-2    4.823342733270703E-1
 1.094000000000000E+10   3.221135485915618E-1    3.767773518676035E-1
 1.095000000000000E+10   4.784852046166296E-1    1.452617810146931E-1
 1.096000000000000E+10   4.846505341148262E-1   -1.402566635045479E-1
 1.097000000000000E+10   3.330821138384913E-1   -3.818030627202779E-1
 1.098000000000000E+10   7.337435121062924E-2   -4.991375196367862E-1
 1.099000000000000E+10  -2.087583325187818E-1   -4.517762776494472E-1
 1.100000000000000E+10  -4.174717245379306E-1   -2.528786963810959E-1
 1.101000000000000E+10  -4.859682760921480E-1    2.674251273497512E-2
 1.102000000000000E+10  -3.841088035137503E-1    2.961542996321969E-1
 1.103000000000000E+10  -1.484161910322912E-1    4.596666043337090E-1
 1.104000000000000E+10   1.361337729474555E-1    4.627749022985277E-1
 1.105000000000000E+10   3.732006159767613E-1    3.094014619782131E-1
 1.106000000000000E+10   4.821213731331275E-1    5.532129831329851E-2
 1.107000000000000E+10   4.310779113547670E-1   -2.167906980928694E-1
 1.108000000000000E+10   2.353633485190409E-1   -4.158546736479464E-1
 1.109000000000000E+10  -4.025971021637418E-2   -4.709246463274834E-1
 1.110000000000000E+10  -2.986664778827153E-1   -3.605005067828547E-1
 1.111000000000000E+10  -4.406583986923716E-1   -1.179327530969884E-1
 1.112000000000000E+10  -4.201053717186057E-1    1.626404870754665E-1
 1.113000000000000E+10  -2.461315973892168E-1    3.805225330685252E-1
 1.114000000000000E+10   1.749677086845381E-2    4.596322804445381E-1
 1.115000000000000E+10   2.759291453984870E-1    3.733321974130792E-1
 1.116000000000000E+10   4.427504327006627E-1    1.520892622600662E-1
 1.117000000000000E+10   4.553640757588788E-1   -1.239912683666440E-1
 1.118000000000000E+10   3.082748962052899E-1   -3.577466178987004E-1
 1.119000000000000E+10   5.231301570139473E-2   -4.649912945862674E-1
 1.120000000000000E+10  -2.218385427609884E-1   -4.038990898001442E-1
 1.121000000000000E+10  -4.160953870508579E-1   -1.992585864293434E-1
 1.122000000000000E+10  -4.557647746019270E-1    8.098870505092158E-2
 1.123000000000000E+10  -3.252425208559270E-1    3.327415236736644E-1
 1.124000000000000E+10  -7.410422154153375E-2    4.633129507593645E-1
 1.125000000000000E+10   2.053163056702474E-1    4.288189206917967E-1
 1.126000000000000E+10   4.129274953565990E-1    2.468753595244677E-1
 1.127000000000000E+10   4.815509958501737E-1   -2.061229261738590E-2
 1.128000000000000E+10   3.882637070015021E-1   -2.831537882089016E-1
 1.129000000000000E+10   1.608000007763158E-1   -4.508201889862705E-1
 1.130000000000000E+10  -1.247865593492188E-1   -4.602846885162336E-1
 1.131000000000000E+10  -3.616894401026044E-1   -2.965392345592624E-1
 1.132000000000000E+10  -4.637153720345185E-1   -2.327666001678275E-2
 1.133000000000000E+10  -3.933154916691611E-1    2.582093145429420E-1
 1.134000000000000E+10  -1.792096631957945E-1    4.478464464071497E-1
 1.135000000000000E+10   1.017322453929891E-1    4.816153800632694E-1
 1.136000000000000E+10   3.583302869834716E-1    3.488826909433068E-1
 1.137000000000000E+10   4.984258010214305E-1    9.671256514377174E-2
 1.138000000000000E+10   4.737974549917571E-1   -1.915080064044410E-1
 1.139000000000000E+10   2.895500873839644E-1   -4.172452589549668E-1
 1.140000000000000E+10   6.235959996281176E-3   -4.992689213584620E-1
 1.141000000000000E+10  -2.779933921601351E-1   -4.092105769057810E-1
 1.142000000000000E+10  -4.596362777180710E-1   -1.716107783408466E-1
 1.143000000000000E+10  -4.717685406748635E-1    1.283774032875365E-1
 1.144000000000000E+10  -3.091145495438776E-1    3.817122838942459E-1
 1.145000000000000E+10  -3.150524054237367E-2    4.969181424950401E-1
 1.146000000000000E+10   2.564494682652292E-1    4.382344714203025E-1
 1.147000000000000E+10   4.596692207445541E-1    2.259932277845039E-1
 1.148000000000000E+10   5.089810543869723E-1   -6.457143891960485E-2
 1.149000000000000E+10   3.879364042036291E-1   -3.350796497625583E-1
 1.150000000000000E+10   1.354128765726990E-1   -4.933846936991131E-1
 1.151000000000000E+10  -1.618760112842504E-1   -4.743191910207269E-1
 1.152000000000000E+10  -4.010436787131871E-1   -2.859795311805208E-1
 1.153000000000000E+10  -4.910064174978081E-1    6.504753393174240E-3
 1.154000000000000E+10  -3.993761163988867E-1    2.942926166520680E-1
 1.155000000000000E+10  -1.642833093147454E-1    4.743034944506603E-1
 1.156000000000000E+10   1.364144545534986E-1    4.866407753202139E-1
 1.157000000000000E+10   3.901740483926430E-1    3.303381946469705E-1
 1.158000000000000E+10   5.118443796193032E-1    5.908352849426871E-2
 1.159000000000000E+10   4.573879774824527E-1   -2.339501752960579E-1
 1.160000000000000E+10   2.432090931128632E-1   -4.436167105713231E-1
 1.161000000000000E+10  -5.520935823767988E-2   -4.972274680593832E-1
 1.162000000000000E+10  -3.307618962271762E-1   -3.668420643679947E-1
 1.163000000000000E+10  -4.791619590324086E-1   -9.820130460703495E-2
 1.164000000000000E+10  -4.418392472322119E-1    2.084875263368535E-1
 1.165000000000000E+10  -2.314553807995863E-1    4.360408538067199E-1
 1.166000000000000E+10   6.294781975087117E-2    4.997771687517449E-1
 1.167000000000000E+10   3.391324708625093E-1    3.788215787409965E-1
 1.168000000000000E+10   4.956844734361491E-1    1.198947341782142E-1
 1.169000000000000E+10   4.777647439761165E-1   -1.830264917773338E-1
 1.170000000000000E+10   2.918179559490028E-1   -4.232169434280142E-1
 1.171000000000000E+10   1.886983072438308E-5   -5.067258613597261E-1
 1.172000000000000E+10  -2.933574721284232E-1   -4.065700079894504E-1
 1.173000000000000E+10  -4.792212271578944E-1   -1.534825790018708E-1
 1.174000000000000E+10  -4.850660995935693E-1    1.601307450303964E-1
 1.175000000000000E+10  -3.090265743461574E-1    4.155701749493970E-1
 1.176000000000000E+10  -1.161675373688612E-2    5.239555592310272E-1
 1.177000000000000E+10   2.908342377308768E-1    4.447834497079912E-1
 1.178000000000000E+10   4.942175609642548E-1    2.108089176791459E-1
 1.179000000000000E+10   5.297890785136418E-1   -9.724997171690515E-2
 1.180000000000000E+10   3.822019049603568E-1   -3.726418321479538E-1
 1.181000000000000E+10   1.012549503775045E-1   -5.221657646547784E-1
 1.182000000000000E+10  -2.164887248340834E-1   -4.814078845172753E-1
 1.183000000000000E+10  -4.529049089941455E-1   -2.637129903157224E-1
 1.184000000000000E+10  -5.219154517308938E-1    5.077496972310041E-2
 1.185000000000000E+10  -4.000536694800463E-1    3.494783245316550E-1
 1.186000000000000E+10  -1.375148489529126E-1    5.236706002689339E-1
 1.187000000000000E+10   1.763782186950709E-1    5.201048455722707E-1
 1.188000000000000E+10   4.361401974703927E-1    3.437084229068880E-1
 1.189000000000000E+10   5.585032875568121E-1    5.445693808328001E-2
 1.190000000000000E+10   5.061857449619303E-1   -2.552320283817123E-1
 1.191000000000000E+10   2.889378722410746E-1   -4.809744390644066E-1
 1.192000000000000E+10  -2.057837436776207E-2   -5.535106257014518E-1
 1.193000000000000E+10  -3.236912576428404E-1   -4.446442953924784E-1
 1.194000000000000E+10  -5.182257410986020E-1   -1.853976495514387E-1
 1.195000000000000E+10  -5.350344639640460E-1    1.375639767689748E-1
 1.196000000000000E+10  -3.643205086003201E-1    4.167319552080166E-1
 1.197000000000000E+10  -6.908745837342872E-2    5.543790117650486E-1
 1.198000000000000E+10   2.505580109560379E-1    5.070498943882779E-1
 1.199000000000000E+10   4.905081356311036E-1    2.931167546613321E-1
 1.200000000000000E+10   5.734511232412750E-1   -1.840312285842720E-2
 1.201000000000000E+10   4.743776785362491E-1   -3.299663079081352E-1
 1.202000000000000E+10   2.172025726448533E-1   -5.374859141904069E-1
 1.203000000000000E+10  -1.157557366900355E-1   -5.660347771979336E-1
 1.204000000000000E+10  -4.096488242580948E-1   -4.012479463921756E-1
 1.205000000000000E+10  -5.617271237454055E-1   -9.867904431871946E-2
 1.206000000000000E+10  -5.245352463235162E-1    2.338890037926842E-1
 1.207000000000000E+10  -3.082136434572477E-1    4.869483255730825E-1
 1.208000000000000E+10   1.362539482743817E-2    5.771363564427092E-1
 1.209000000000000E+10   3.337125666945398E-1    4.733681236984805E-1
 1.210000000000000E+10   5.436639883247758E-1    2.098285208960528E-1
 1.211000000000000E+10   5.687628442966267E-1   -1.213736023395374E-1
 1.212000000000000E+10   4.010028456128017E-1   -4.131993154216110E-1
 1.213000000000000E+10   9.573840659518362E-2   -5.626436600426230E-1
 1.214000000000000E+10  -2.424853414761328E-1   -5.154834894728526E-1
 1.215000000000000E+10  -4.947198221249501E-1   -2.858732755472959E-1
 1.216000000000000E+10  -5.683089687254994E-1    5.151871083328601E-2
 1.217000000000000E+10  -4.370768216746269E-1    3.719553425370212E-1
 1.218000000000000E+10  -1.480714502454108E-1    5.601319229891291E-1
 1.219000000000000E+10   1.937333799534927E-1    5.508869461690927E-1
 1.220000000000000E+10   4.679515491630734E-1    3.513149164532751E-1
 1.221000000000000E+10   5.845843178366535E-1    2.891229386220821E-2
 1.222000000000000E+10   5.002921301021824E-1   -3.008889268028045E-1
 1.223000000000000E+10   2.447467276103100E-1   -5.254563566872973E-1
 1.224000000000000E+10  -9.469390383124317E-2   -5.652348476243995E-1
 1.225000000000000E+10  -3.980306173727711E-1   -4.032500730694302E-1
 1.226000000000000E+10  -5.571091541384368E-1   -9.955841302114023E-2
 1.227000000000000E+10  -5.106892269686694E-1    2.395041742584433E-1
 1.228000000000000E+10  -2.763023092867437E-1    4.898383460527960E-1
 1.229000000000000E+10   6.095305536204060E-2    5.600398811330464E-1
 1.230000000000000E+10   3.782983663610663E-1    4.234803341689929E-1
 1.231000000000000E+10   5.528432730314392E-1    1.331658252424400E-1
 1.232000000000000E+10   5.263188392408996E-1   -2.071236078767091E-1
 1.233000000000000E+10   3.079691495204546E-1   -4.700659130381492E-1
 1.234000000000000E+10  -1.967800587258513E-2   -5.603991786439898E-1
 1.235000000000000E+10  -3.380618360589687E-1   -4.487615453658345E-1
 1.236000000000000E+10  -5.309741816907236E-1   -1.702355474628776E-1
 1.237000000000000E+10  -5.303093785321369E-1    1.693000648849596E-1
 1.238000000000000E+10  -3.339270190809384E-1    4.468823318765766E-1
 1.239000000000000E+10  -1.352185872217988E-2    5.582726317256868E-1
 1.240000000000000E+10   3.101208065791370E-1    4.621191575624038E-1
 1.241000000000000E+10   5.218993988257431E-1    1.939370374683466E-1
 1.242000000000000E+10   5.378557979996841E-1   -1.459977762516742E-1
 1.243000000000000E+10   3.529214560893139E-1   -4.309071308548724E-1
 1.244000000000000E+10   3.636112341558423E-2   -5.544183310809251E-1
 1.245000000000000E+10  -2.930835189471890E-1   -4.705325730619634E-1
 1.246000000000000E+10  -5.158812282995897E-1   -2.186467041307452E-1
 1.247000000000000E+10  -5.495511454937947E-1    1.139535460885112E-1
 1.248000000000000E+10  -3.849913656838275E-1    4.044413151753036E-1
 1.249000000000000E+10  -8.409507391050222E-2    5.499309261301385E-1
 1.250000000000000E+10   2.464806998787286E-1    5.011213967265206E-1
