#  HZ   S   RI   R     50.00 
! Rohde & Schwarz Vector Network Analyzer 
! Rohde-Schwarz,ZNA43-4Port,1332450044101932,2.92
! Created: UTC 6/9/2026, 6:47:31 AM
! freq[Hz]                re:S11                  im:S11
 8.000000000000000E9    -1.734684856506704E-1   -2.104390689255705E-1
 8.010000000000000E9    -2.421467773303621E-1   -6.922605794840317E-2
 8.020000000000000E9    -2.105489719096594E-1    6.369943726140025E-2
 8.030000000000000E9    -1.438488170863375E-1    1.348338267473448E-1
 8.040000000000000E9    -7.829643808583955E-2    1.738907862629119E-1
 8.050000000000000E9     6.294858459270245E-3    2.283174906540403E-1
 8.060000000000000E9     1.322266349221289E-1    2.135073554114684E-1
 8.070000000000000E9     2.307992379933009E-1    1.106234627392243E-1
 8.080000000000000E9     2.497142470336136E-1   -3.334538844528340E-2
 8.090000000000000E9     1.813270454566456E-1   -1.260645424144776E-1
 8.100000000000000E9     1.096125902252104E-1   -1.755405266842366E-1
 8.110000000000000E9     3.327993195669435E-2   -2.123166435921192E-1
 8.120000000000000E9    -7.607308474104638E-2   -2.234169684349742E-1
 8.130000000000000E9    -2.122535890515555E-1   -1.453796807617013E-1
 8.140000000000000E9    -2.604700668086615E-1    9.563909782899633E-3
 8.150000000000000E9    -1.919351062157262E-1    1.399444518324378E-1
 8.160000000000000E9    -8.146864309585776E-2    2.129050921167567E-1
 8.170000000000000E9     1.629353013501206E-2    2.243631257534436E-1
 8.180000000000000E9     1.059410985380962E-1    2.026973253564211E-1
 8.190000000000000E9     2.119480573065848E-1    1.490944107189027E-1
 8.200000000000000E9     2.789587956210181E-1    2.585358643599713E-2
 8.210000000000000E9     2.385489319550914E-1   -1.555735968824859E-1
 8.220000000000000E9     1.088979732620355E-1   -2.358499700329036E-1
 8.230000000000000E9    -1.523464754396794E-2   -2.221180372033097E-1
 8.240000000000000E9    -1.037816439390220E-1   -1.625249367342008E-1
 8.250000000000000E9    -1.680127686954713E-1   -1.089618944120898E-1
 8.260000000000000E9    -2.212785589231751E-1   -8.407652537392972E-3
 8.270000000000000E9    -1.994169955854418E-1    1.434781912826950E-1
 8.280000000000000E9    -7.154943611177234E-2    2.342477107834122E-1
 8.290000000000000E9     7.228766337686474E-2    2.154741154596259E-1
 8.300000000000000E9     1.682473047459633E-1    1.382172547685817E-1
 8.310000000000000E9     1.821877635935313E-1    5.239332005249146E-2
 8.320000000000000E9     1.789323684189289E-1   -1.842116092510463E-2
 8.330000000000000E9     1.745320086435265E-1   -1.060481292062279E-1
 8.340000000000000E9     9.194755545922774E-2   -1.864915593726228E-1
 8.350000000000000E9    -4.412145687434694E-2   -1.976559404322444E-1
 8.360000000000000E9    -1.379266718967326E-1   -1.081408673889057E-1
 8.370000000000000E9    -1.314613438008607E-1    6.335127313141282E-3
 8.380000000000000E9    -9.551660537432297E-2    5.827646586528049E-2
 8.390000000000000E9    -8.181294892583721E-2    8.163287536572690E-2
 8.400000000000000E9    -3.604870991076261E-2    1.343322784647047E-1
 8.410000000000000E9     5.952596608548609E-2    1.577958623142943E-1
 8.420000000000000E9     1.416502246661547E-1    1.045782948938476E-1
 8.430000000000000E9     1.751361087229012E-1   -4.617830286272498E-3
 8.440000000000000E9     1.173822799753465E-1   -7.391142277076881E-2
 8.450000000000000E9     6.718275052932736E-2   -6.557941451434302E-2
 8.460000000000000E9     4.763082335232891E-2   -8.555576645571482E-2
 8.470000000000000E9     1.541928781919301E-2   -1.208566585082839E-1
 8.480000000000000E9    -6.690557868643995E-2   -1.042705849279034E-1
 8.490000000000000E9    -1.163823941237386E-1   -1.907329034533042E-2
 8.500000000000000E9    -7.928336869461881E-2    5.533992203811275E-2
 8.510000000000000E9    -1.794908070704454E-2    7.816361587558562E-2
 8.520000000000000E9     1.486542974995837E-2    6.160329893195427E-2
 8.530000000000000E9     1.048329140196242E-2    5.788592816801942E-2
 8.540000000000000E9     4.418187251656124E-2    6.800199752802383E-2
 8.550000000000000E9     1.116164857170934E-1    4.361872792573651E-2
 8.560000000000000E9     1.177105764297598E-1   -3.066200848429946E-2
 8.570000000000000E9     4.424452214307467E-2   -8.507849900468907E-2
 8.580000000000000E9     1.009753818465122E-3   -5.239792261925225E-2
 8.590000000000000E9    -5.893051218993124E-3   -2.158287021786261E-2
 8.600000000000000E9    -4.468302143395450E-3   -2.962357623918585E-2
 8.610000000000000E9    -2.448125551693076E-2   -4.078495522852830E-2
 8.620000000000000E9    -5.637499996013041E-2    1.644328418141529E-2
 8.630000000000000E9    -1.274450640078937E-2    8.215289584187342E-2
 8.640000000000000E9     5.814097130747961E-2    6.938796936722626E-2
 8.650000000000000E9     7.514688502092035E-2    7.311845413968046E-3
 8.660000000000000E9     5.548003958363013E-2   -2.029212428891774E-2
 8.670000000000000E9     2.653603217276709E-2   -2.303387558095653E-2
 8.680000000000000E9     3.105439147329674E-2   -1.681487683598061E-2
 8.690000000000000E9     4.225396240724864E-2   -4.405542596495300E-2
 8.700000000000000E9    -7.366441827357168E-3   -5.449795018016487E-2
 8.710000000000000E9    -5.765876696381613E-2   -1.890399314972117E-2
 8.720000000000000E9    -3.577849950481773E-2    4.301024938636139E-2
 8.730000000000000E9     3.237086624259031E-2    5.611567475522228E-2
 8.740000000000000E9     4.515826022545193E-2    1.024654436929186E-3
 8.750000000000000E9     1.369113687907780E-2   -1.629974235562252E-2
 8.760000000000000E9     1.520581707579875E-2    1.878293810616382E-2
 8.770000000000000E9     5.273667694561177E-2    1.604617240709111E-2
 8.780000000000000E9     4.140425438188770E-2   -4.265709903697763E-2
 8.790000000000000E9    -1.383586105603737E-2   -6.639197692142935E-2
 8.800000000000000E9    -5.772701643700638E-2   -1.095164699100484E-2
 8.810000000000000E9    -2.586455984408965E-2    4.834999744021141E-2
 8.820000000000000E9     1.491685834076176E-2    3.129320768821199E-2
 8.830000000000000E9     2.529370241569139E-2    1.763685488897253E-2
 8.840000000000000E9     9.862014898651555E-3    2.317878569641666E-2
 8.850000000000000E9     1.620866466343640E-2    4.036294602606418E-2
 8.860000000000000E9     5.983088880902460E-2    3.218261510554833E-2
 8.870000000000000E9     8.228850783644491E-2   -1.532704458610957E-2
 8.880000000000000E9     2.956304057304290E-2   -5.650840395731419E-2
 8.890000000000000E9    -1.587404569081988E-2   -1.872277591438682E-2
 8.900000000000000E9     2.237069597029986E-2    9.435892369041269E-3
 8.910000000000000E9     4.518788965125983E-2   -1.210607033847384E-2
 8.920000000000000E9     1.280666746816205E-2   -5.725973035271840E-2
 8.930000000000000E9    -4.356411075130913E-2   -4.255359112193265E-2
 8.940000000000000E9    -3.113410624076845E-2    1.318867406527726E-2
 8.950000000000000E9    -8.189146901771124E-3    3.025364207803908E-2
 8.960000000000000E9    -7.143722015797197E-3    7.360392486584129E-3
 8.970000000000000E9    -3.256965979009084E-2    1.795852087879572E-2
 8.980000000000000E9    -2.254133053199767E-2    7.798423443815040E-2
 8.990000000000000E9     3.774974396253003E-2    9.405191903738672E-2
 9.000000000000000E9     9.913711774921924E-2    4.103025885350482E-2
 9.010000000000000E9     1.049776096032527E-1   -1.953882610489539E-2
 9.020000000000000E9     6.468134953057188E-2   -4.489353324487965E-2
 9.030000000000000E9     4.427683373284996E-2   -6.139972191724107E-2
 9.040000000000000E9     2.809384103503308E-2   -7.770162381734320E-2
 9.050000000000000E9    -2.069664901902796E-2   -1.087620097199956E-1
 9.060000000000000E9    -1.190732148715169E-1   -7.544535645973051E-2
 9.070000000000000E9    -1.421410219229741E-1    2.795314423647839E-2
 9.080000000000000E9    -8.208405769685280E-2    1.203807048301699E-1
 9.090000000000000E9     3.907918841818580E-3    1.407472453974675E-1
 9.100000000000000E9     5.541795111646733E-2    1.147408831189441E-1
 9.110000000000000E9     9.628943815963648E-2    9.254703828883300E-2
 9.120000000000000E9     1.557221321787995E-1    5.829187909455524E-2
 9.130000000000000E9     1.904250419032785E-1   -3.743596375597062E-2
 9.140000000000000E9     1.311905773347411E-1   -1.682136271030439E-1
 9.150000000000000E9     1.276180908795975E-3   -2.005333929920207E-1
 9.160000000000000E9    -1.013959656225897E-1   -1.352618302626419E-1
 9.170000000000000E9    -1.440362981848501E-1   -5.959546562951498E-2
 9.180000000000000E9    -1.564846618314582E-1   -2.810738643931816E-4
 9.190000000000000E9    -1.551995152634614E-1    8.269484765550000E-2
 9.200000000000000E9    -1.095339686135411E-1    1.697161858462739E-1
 9.210000000000000E9     1.322799886825777E-2    2.231271878616502E-1
 9.220000000000000E9     1.436761929761657E-1    1.796212396976148E-1
 9.230000000000000E9     2.153368856252522E-1    6.446665369445140E-2
 9.240000000000000E9     1.782423803155899E-1   -4.939785384647830E-2
 9.250000000000000E9     1.286380602763209E-1   -1.031479008257346E-1
 9.260000000000000E9     8.537445968892962E-2   -1.429690449943309E-1
 9.270000000000000E9     1.418371009054241E-2   -1.790506365991832E-1
 9.280000000000000E9    -1.123604182092538E-1   -1.750860651246793E-1
 9.290000000000000E9    -1.921931806150491E-1   -6.179584034550441E-2
 9.300000000000000E9    -1.740512312592172E-1    7.438810288039355E-2
 9.310000000000000E9    -8.709585830785019E-2    1.352581758935125E-1
 9.320000000000000E9    -3.935803803645291E-2    1.272997847346070E-1
 9.330000000000000E9     1.320856016327114E-2    1.556031270707905E-1
 9.340000000000000E9     9.879881669679021E-2    1.537590387514017E-1
 9.350000000000000E9     1.767807993757230E-1    8.961301642597851E-2
 9.360000000000000E9     2.017103927433906E-1   -2.294744093515489E-2
 9.370000000000000E9     1.390490823114508E-1   -1.233278696914467E-1
 9.380000000000000E9     4.009436008631542E-2   -1.519048129349115E-1
 9.390000000000000E9    -2.538050547583582E-2   -1.375922139599819E-1
 9.400000000000000E9    -5.011522989453064E-2   -1.238783931668345E-1
 9.410000000000000E9    -1.311526551432352E-1   -1.109025719778893E-1
 9.420000000000000E9    -1.962352487916182E-1   -1.890996436173695E-2
 9.430000000000000E9    -1.760345649565359E-1    1.144533349879206E-1
 9.440000000000000E9    -6.708548308330090E-2    1.876373636882183E-1
 9.450000000000000E9     2.473949870882264E-2    1.682434144723476E-1
 9.460000000000000E9     8.257920769088122E-2    1.313597357860651E-1
 9.470000000000000E9     1.256818409563741E-1    1.089086791208976E-1
 9.480000000000000E9     1.942683765965364E-1    5.486712344367037E-2
 9.490000000000000E9     2.120184936864850E-1   -7.496544583031925E-2
 9.500000000000000E9     1.249625852862852E-1   -1.889624192935354E-1
 9.510000000000000E9    -1.990833313760350E-3   -2.112029952394659E-1
 9.520000000000000E9    -1.009096215970553E-1   -1.571071993802874E-1
 9.530000000000000E9    -1.438418720844247E-1   -9.367792743604632E-2
 9.540000000000000E9    -1.690647985385473E-1   -3.575110057031078E-2
 9.550000000000000E9    -1.906970237554330E-1    5.546462427398173E-2
 9.560000000000000E9    -1.582492772256187E-1    1.702542498330163E-1
 9.570000000000000E9    -2.572854377188936E-2    2.413218161811277E-1
 9.580000000000000E9     1.050939851998250E-1    1.991063202356143E-1
 9.590000000000000E9     1.716175036516471E-1    9.785340146240727E-2
 9.600000000000000E9     1.664001619356888E-1    1.259345342899715E-2
 9.610000000000000E9     1.607012485833595E-1   -4.247402095198713E-2
 9.620000000000000E9     1.356761099401263E-1   -1.118980106884492E-1
 9.630000000000000E9     6.096558155642433E-2   -1.951079495450024E-1
 9.640000000000000E9    -7.579959396437629E-2   -1.967064047555982E-1
 9.650000000000000E9    -1.707981241963113E-1   -9.985300584989677E-2
 9.660000000000000E9    -1.634737645746717E-1    1.122067150983445E-2
 9.670000000000000E9    -1.207097121261673E-1    5.827651315377060E-2
 9.680000000000000E9    -1.082122645031360E-1    9.337716675010552E-2
 9.690000000000000E9    -6.985709984391460E-2    1.594526061483341E-1
 9.700000000000000E9     3.168062229425238E-2    1.947883848718685E-1
 9.710000000000000E9     1.275979239883706E-1    1.469589648371829E-1
 9.720000000000000E9     1.827876235051927E-1    4.756225651012588E-2
 9.730000000000000E9     1.583910232947284E-1   -4.065790400817935E-2
 9.740000000000000E9     1.113280950480961E-1   -8.449268842251974E-2
 9.750000000000000E9     8.574583404386950E-2   -1.119876058996022E-1
 9.760000000000000E9     3.520712013622438E-2   -1.538749254517293E-1
 9.770000000000000E9    -6.589567733808493E-2   -1.773659163147626E-1
 9.780000000000000E9    -1.677827480329015E-1   -1.082021100416251E-1
 9.790000000000000E9    -1.946755504076049E-1    1.407656775656131E-2
 9.800000000000000E9    -1.392536827221565E-1    1.002570596056476E-1
 9.810000000000000E9    -8.070970622129922E-2    1.259127249895902E-1
 9.820000000000000E9    -4.284539155557904E-2    1.610802953097464E-1
 9.830000000000000E9     4.031990329829942E-2    2.007475636410245E-1
 9.840000000000000E9     1.629265085778761E-1    1.634018687452197E-1
 9.850000000000000E9     2.334570021256656E-1    3.379476000149543E-2
 9.860000000000000E9     2.009007756308101E-1   -9.558956996843782E-2
 9.870000000000000E9     1.247003963967566E-1   -1.671534727477273E-1
 9.880000000000000E9     3.125787326896242E-2   -1.924715596670001E-1
 9.890000000000000E9    -4.988517558575470E-2   -1.859783419766267E-1
 9.900000000000000E9    -1.433517157993180E-1   -1.545835182823968E-1
 9.910000000000000E9    -2.276620268229309E-1   -6.754136919902969E-2
 9.920000000000000E9    -2.365420053539273E-1    8.071245291659307E-2
 9.930000000000000E9    -1.446313404259160E-1    2.042052324337885E-1
 9.940000000000000E9    -1.042049209151253E-3    2.291213830063612E-1
 9.950000000000000E9     9.315484793613960E-2    1.842493996908548E-1
 9.960000000000000E9     1.548006996480255E-1    1.289601362678708E-1
 9.970000000000000E9     2.063362291686948E-1    6.281494570068111E-2
 9.980000000000000E9     2.298832417012952E-1   -6.049684798773096E-2
 9.990000000000000E9     1.650690919079289E-1   -1.963819997597065E-1
 1.000000000000000E+10   1.953123512843776E-2   -2.502570785259230E-1
 1.001000000000000E+10  -1.191106867605231E-1   -1.948456469146805E-1
 1.002000000000000E+10  -1.739664113798297E-1   -9.803027680493057E-2
 1.003000000000000E+10  -1.831367568167535E-1   -1.938408146828570E-2
 1.004000000000000E+10  -1.928030124378916E-1    6.202822997806521E-2
 1.005000000000000E+10  -1.483391240678734E-1    1.541667656264219E-1
 1.006000000000000E+10  -3.690321752837124E-2    2.315537508333741E-1
 1.007000000000000E+10   1.034235267299142E-1    2.095372432648526E-1
 1.008000000000000E+10   1.936575567311921E-1    1.008556378109366E-1
 1.009000000000000E+10   1.833834762069383E-1   -1.290997357200042E-2
 1.010000000000000E+10   1.400652817390365E-1   -6.378785134621040E-2
 1.011000000000000E+10   1.106353613012756E-1   -1.156377153496094E-1
 1.012000000000000E+10   5.807750149418839E-2   -1.772833519834968E-1
 1.013000000000000E+10  -5.371739909414325E-2   -1.979356788502384E-1
 1.014000000000000E+10  -1.591355412103584E-1   -1.216126758500901E-1
 1.015000000000000E+10  -1.851470351693400E-1    7.238179070501650E-3
 1.016000000000000E+10  -1.214811732273909E-1    8.118530962605913E-2
 1.017000000000000E+10  -6.448779163804923E-2    9.682555764414667E-2
 1.018000000000000E+10  -5.379822451302524E-2    1.144026027008468E-1
 1.019000000000000E+10   1.092175029548829E-2    1.470036388476083E-1
 1.020000000000000E+10   1.108016519228302E-1    1.378667324203592E-1
 1.021000000000000E+10   1.678826727956441E-1    4.284129668387103E-2
 1.022000000000000E+10   1.381643478134930E-1   -5.717789111739532E-2
 1.023000000000000E+10   7.609630564649519E-2   -9.361927079274901E-2
 1.024000000000000E+10   3.695709768308694E-2   -8.986892018129448E-2
 1.025000000000000E+10   9.771727205432231E-3   -1.061925284707149E-1
 1.026000000000000E+10  -3.899785444523274E-2   -1.295692171791065E-1
 1.027000000000000E+10  -1.191426114666039E-1   -8.690286700501082E-2
 1.028000000000000E+10  -1.504852196975323E-1    9.751971373793899E-3
 1.029000000000000E+10  -1.064744275642123E-1    9.419061524921221E-2
 1.030000000000000E+10  -2.636752144299783E-2    1.069168264265802E-1
 1.031000000000000E+10   1.212316281333798E-2    8.584788604493927E-2
 1.032000000000000E+10   2.390447297444758E-2    8.746695058767055E-2
 1.033000000000000E+10   8.035737541939129E-2    9.468772884979330E-2
 1.034000000000000E+10   1.607025905168820E-1    3.478156770009097E-2
 1.035000000000000E+10   1.479566507764582E-1   -8.091592881565612E-2
 1.036000000000000E+10   5.372080949881715E-2   -1.375683484929537E-1
 1.037000000000000E+10  -1.705060687535526E-2   -1.203498459353475E-1
 1.038000000000000E+10  -3.926256659510689E-2   -9.035730366807018E-2
 1.039000000000000E+10  -6.964968412310860E-2   -8.848543133450250E-2
 1.040000000000000E+10  -1.243011640532017E-1   -6.075872398754551E-2
 1.041000000000000E+10  -1.552798958093739E-1    2.877383276016088E-2
 1.042000000000000E+10  -1.079365510581630E-1    1.299912454744871E-1
 1.043000000000000E+10  -7.921268147678164E-3    1.518881659609050E-1
 1.044000000000000E+10   6.225964237559149E-2    1.045293031756122E-1
 1.045000000000000E+10   8.030583383614620E-2    6.037739063356126E-2
 1.046000000000000E+10   8.812615122237298E-2    4.249007397823088E-2
 1.047000000000000E+10   1.278114186392428E-1    5.743656679351293E-3
 1.048000000000000E+10   1.260174643306905E-1   -8.000655274903504E-2
 1.049000000000000E+10   4.541645537106522E-2   -1.471392434101740E-1
 1.050000000000000E+10  -6.271082051718609E-2   -1.254854178752698E-1
 1.051000000000000E+10  -9.897634876483472E-2   -5.378782832849328E-2
 1.052000000000000E+10  -7.194451089134576E-2   -5.168724744883704E-3
 1.053000000000000E+10  -7.430664852258446E-2   -8.977598090962635E-5
 1.054000000000000E+10  -9.730195220361115E-2    4.157866648859882E-2
 1.055000000000000E+10  -6.579585218544685E-2    1.185877301417817E-1
 1.056000000000000E+10   2.767995386332458E-2    1.460562492059140E-1
 1.057000000000000E+10   1.056523635566624E-1    8.658923244015121E-2
 1.058000000000000E+10   1.081724655334702E-1    6.551465991344747E-3
 1.059000000000000E+10   7.859978778949203E-2   -1.671891917938640E-2
 1.060000000000000E+10   7.849312994837040E-2   -2.209086514650723E-2
 1.061000000000000E+10   8.868577985588751E-2   -7.074701717672985E-2
 1.062000000000000E+10   2.773944927459136E-2   -1.261289376111951E-1
 1.063000000000000E+10  -6.124790067134490E-2   -1.184020158053098E-1
 1.064000000000000E+10  -1.137800122238205E-1   -4.595260481547402E-2
 1.065000000000000E+10  -1.003388604447138E-1    2.598570363222953E-2
 1.066000000000000E+10  -5.453015584067489E-2    5.433082604341165E-2
 1.067000000000000E+10  -3.965126924694661E-2    6.611783023641034E-2
 1.068000000000000E+10  -2.936037482575005E-2    1.021768086662919E-1
 1.069000000000000E+10   3.570459104427937E-2    1.436470521365812E-1
 1.070000000000000E+10   1.440901173823051E-1    1.024530923533704E-1
 1.071000000000000E+10   1.735876806909795E-1   -9.776825023084523E-3
 1.072000000000000E+10   1.219304467215558E-1   -9.414748922250017E-2
 1.073000000000000E+10   5.955454379532610E-2   -9.495134785144924E-2
 1.074000000000000E+10   4.230084088274842E-2   -1.037285946812163E-1
 1.075000000000000E+10  -2.155235712555886E-3   -1.283979447593291E-1
 1.076000000000000E+10  -9.546661102177879E-2   -1.191693894966159E-1
 1.077000000000000E+10  -1.546057154532192E-1   -3.088759104813637E-2
 1.078000000000000E+10  -1.237477196967544E-1    8.257925449014600E-2
 1.079000000000000E+10  -2.887294158486360E-2    1.201301982292218E-1
 1.080000000000000E+10   3.669837591994943E-2    9.948093234312806E-2
 1.081000000000000E+10   5.791681978393193E-2    6.857688768877165E-2
 1.082000000000000E+10   8.144904615386077E-2    5.782132460605389E-2
 1.083000000000000E+10   1.264947004765833E-1    1.452061198277356E-2
 1.084000000000000E+10   1.338244493381386E-1   -7.102181531235889E-2
 1.085000000000000E+10   6.461513571872605E-2   -1.521182618519009E-1
 1.086000000000000E+10  -4.967867424661496E-2   -1.390164931859035E-1
 1.087000000000000E+10  -9.377221928386302E-2   -5.397365265271306E-2
 1.088000000000000E+10  -7.200191930052940E-2   -2.766944266226917E-3
 1.089000000000000E+10  -6.103352503829629E-2    6.821749764772399E-3
 1.090000000000000E+10  -8.182153422036560E-2    4.074672506650379E-2
 1.091000000000000E+10  -3.980534780056422E-2    1.044818322350675E-1
 1.092000000000000E+10   5.320628329076299E-2    1.223788503091369E-1
 1.093000000000000E+10   1.209562251737239E-1    5.731154225172508E-2
 1.094000000000000E+10   1.160267711291295E-1   -2.635616675777613E-2
 1.095000000000000E+10   5.076922049954898E-2   -5.352606663642510E-2
 1.096000000000000E+10   3.780900473720218E-2   -3.365683487092106E-2
 1.097000000000000E+10   4.697139985077905E-2   -5.449493945872712E-2
 1.098000000000000E+10   1.373788882432624E-2   -9.383930067822782E-2
 1.099000000000000E+10  -5.446794589240433E-2   -7.620515447666895E-2
 1.100000000000000E+10  -7.820425397383486E-2   -3.724810654993927E-3
 1.101000000000000E+10  -3.981908952725261E-2    5.017845236450209E-2
 1.102000000000000E+10   1.412105179197898E-2    3.478155808088567E-2
 1.103000000000000E+10   1.355739407095182E-2    2.854988139085595E-3
 1.104000000000000E+10  -1.582962631845063E-2    6.904182840170520E-3
 1.105000000000000E+10   5.948976717428977E-3    4.393763665062574E-2
 1.106000000000000E+10   5.330704110233756E-2    3.571756776200739E-2
 1.107000000000000E+10   5.879137834820000E-2   -1.652455306855645E-2
 1.108000000000000E+10   1.351295928275203E-2   -3.984409821588907E-2
 1.109000000000000E+10  -1.926432614929772E-2   -2.056522248750301E-3
 1.110000000000000E+10   2.238718316242379E-2    2.954799658550575E-2
 1.111000000000000E+10   6.125316169228968E-2   -4.553257308647755E-3
 1.112000000000000E+10   3.319603766276255E-2   -5.749238145387096E-2
 1.113000000000000E+10  -2.137442227687415E-2   -3.485370785462931E-2
 1.114000000000000E+10  -1.438337387843280E-2    1.486605299780057E-2
 1.115000000000000E+10   1.962035430137391E-2    1.238865316484154E-2
 1.116000000000000E+10   2.012783312045284E-2   -2.602019224035786E-2
 1.117000000000000E+10  -2.104159417300473E-2   -2.798519652925174E-2
 1.118000000000000E+10  -4.020107224667938E-2    1.827870712727252E-2
 1.119000000000000E+10   7.497777976573775E-3    5.469230749226610E-2
 1.120000000000000E+10   5.310393053267195E-2    3.208946772432239E-2
 1.121000000000000E+10   4.548132756363978E-2   -2.011378860370623E-2
 1.122000000000000E+10  -4.296609363938672E-3   -1.711090195754674E-2
 1.123000000000000E+10   4.935788284037395E-3    1.856206224256619E-2
 1.124000000000000E+10   4.218350978216021E-2    1.385266111763296E-2
 1.125000000000000E+10   4.814901106557903E-2   -3.168051749332890E-2
 1.126000000000000E+10  -5.513142820794197E-3   -5.332944557709197E-2
 1.127000000000000E+10  -4.728852248737445E-2   -3.901838857254643E-3
 1.128000000000000E+10  -1.211683359059418E-2    5.202604689240568E-2
 1.129000000000000E+10   4.184541822084017E-2    2.739095992922121E-2
 1.130000000000000E+10   2.625458272344230E-2   -2.338443220379056E-2
 1.131000000000000E+10  -1.598136625280011E-2   -3.472934621297085E-3
 1.132000000000000E+10   5.450669211889344E-3    4.884393365577840E-2
 1.133000000000000E+10   6.171402411812930E-2    4.165894101055392E-2
 1.134000000000000E+10   6.888392604792985E-2   -2.345034405535099E-2
 1.135000000000000E+10   6.759003211443637E-3   -4.108938104507542E-2
 1.136000000000000E+10  -1.701209609746065E-2   -2.167813138455211E-3
 1.137000000000000E+10   1.656808620383105E-2    2.917409013432750E-2
 1.138000000000000E+10   5.501143430618329E-2    4.632684084138862E-3
 1.139000000000000E+10   3.031508118751394E-2   -3.901075688554313E-2
 1.140000000000000E+10  -1.321716851485128E-2   -1.812611379636311E-2
 1.141000000000000E+10  -9.244443186549883E-3    2.253378863856691E-2
 1.142000000000000E+10   3.555595504374889E-2    2.857856839415442E-2
 1.143000000000000E+10   4.958463226558152E-2   -1.383848549832143E-2
 1.144000000000000E+10   1.114962332639327E-2   -4.642542595944241E-2
 1.145000000000000E+10  -2.782453125764349E-2   -5.330068554410554E-3
 1.146000000000000E+10   3.339197257574562E-3    4.523208930728548E-2
 1.147000000000000E+10   4.970946550362811E-2    1.805994762304683E-2
 1.148000000000000E+10   2.797218506166168E-2   -3.142486724573982E-2
 1.149000000000000E+10  -1.885465269382769E-2   -1.717921268290466E-2
 1.150000000000000E+10  -9.445849430703035E-3    3.636849113237666E-2
 1.151000000000000E+10   5.194977355975856E-2    3.350684242504035E-2
 1.152000000000000E+10   6.446122448537298E-2   -2.202537983541364E-2
 1.153000000000000E+10   1.288548807426369E-2   -4.436178599162699E-2
 1.154000000000000E+10  -2.669888576078881E-2   -8.466431528234203E-3
 1.155000000000000E+10  -7.323527328628971E-4    3.072699738578060E-2
 1.156000000000000E+10   3.861276897425999E-2    5.461583058076962E-3
 1.157000000000000E+10   1.810933881269643E-2   -3.518619840250261E-2
 1.158000000000000E+10  -2.857901223626680E-2   -1.560380261276724E-2
 1.159000000000000E+10  -1.979167035733088E-2    3.403439434828763E-2
 1.160000000000000E+10   2.407621461323732E-2    5.056307725291802E-2
 1.161000000000000E+10   5.212988359665643E-2    1.456811064461464E-2
 1.162000000000000E+10   2.431861613501121E-2   -2.360260149290239E-2
 1.163000000000000E+10  -2.372673268387867E-3    1.173055903376950E-2
 1.164000000000000E+10   3.767672198378207E-2    4.509869998954600E-2
 1.165000000000000E+10   8.654571084561617E-2    4.702663085671440E-3
 1.166000000000000E+10   5.800739787909820E-2   -6.223656010729246E-2
 1.167000000000000E+10  -1.315101964728370E-2   -6.163363595803560E-2
 1.168000000000000E+10  -3.306030995216523E-2   -5.491034198861942E-3
 1.169000000000000E+10   4.252286603472127E-3    5.685482919547076E-3
 1.170000000000000E+10   1.064039679916723E-2   -3.201531267429020E-2
 1.171000000000000E+10  -4.234876544216893E-2   -2.606213294159355E-2
 1.172000000000000E+10  -6.309840999422725E-2    3.940046728492975E-2
 1.173000000000000E+10  -1.614923898256379E-2    9.252186549198972E-2
 1.174000000000000E+10   5.289451206949308E-2    7.697120093506757E-2
 1.175000000000000E+10   6.610775754300401E-2    2.004819256462916E-2
 1.176000000000000E+10   4.428779480732339E-2    6.289533460152830E-3
 1.177000000000000E+10   5.846824882656607E-2    7.872350888054777E-3
 1.178000000000000E+10   7.874377511364329E-2   -1.510170745585820E-2
 1.179000000000000E+10   6.668296662043159E-2   -7.203458245591234E-2
 1.180000000000000E+10  -8.820923493957519E-3   -1.104328473280918E-1
 1.181000000000000E+10  -8.837999831443716E-2   -5.533002293224102E-2
 1.182000000000000E+10  -8.231787141767549E-2    3.378521451460172E-2
 1.183000000000000E+10  -2.513384195996247E-2    5.701920309710037E-2
 1.184000000000000E+10  -6.236377886816679E-3    4.174008891480387E-2
 1.185000000000000E+10  -1.811011250396012E-2    7.088015131160588E-2
 1.186000000000000E+10   2.230940155149839E-2    1.150705149124740E-1
 1.187000000000000E+10   1.154275822569634E-1    9.712507152812376E-2
 1.188000000000000E+10   1.601117106389504E-1   -1.212524581488495E-3
 1.189000000000000E+10   1.092704914930706E-1   -8.672972269532719E-2
 1.190000000000000E+10   3.852872101472712E-2   -9.860414749856555E-2
 1.191000000000000E+10   1.159094798009775E-2   -7.265007035751202E-2
 1.192000000000000E+10  -6.429592950946292E-3   -7.649760068104422E-2
 1.193000000000000E+10  -6.277983006347108E-2   -7.778219789078862E-2
 1.194000000000000E+10  -1.117314227420915E-1   -1.896834421265297E-2
 1.195000000000000E+10  -1.034192054615030E-1    6.604730065089073E-2
 1.196000000000000E+10  -2.937704671046151E-2    1.248415078939472E-1
 1.197000000000000E+10   6.040007133236939E-2    9.724528029524272E-2
 1.198000000000000E+10   7.948296103577009E-2    3.885755397208304E-2
 1.199000000000000E+10   6.456141235491089E-2    2.023232440261841E-2
 1.200000000000000E+10   8.000536857049480E-2    1.567901525956129E-2
 1.201000000000000E+10   1.136909089531301E-1   -4.012620967003563E-2
 1.202000000000000E+10   6.876904191477677E-2   -1.206576607781645E-1
 1.203000000000000E+10  -3.695208309414895E-2   -1.289968494056520E-1
 1.204000000000000E+10  -9.706307111218937E-2   -4.977468330922894E-2
 1.205000000000000E+10  -6.398465996019798E-2    2.164980874270913E-2
 1.206000000000000E+10  -3.485955599455456E-2    2.171699537179335E-2
 1.207000000000000E+10  -5.335679385506174E-2    2.114589901513225E-2
 1.208000000000000E+10  -4.832934064650961E-2    6.819929088399170E-2
 1.209000000000000E+10   1.430816074172895E-2    1.072382907712174E-1
 1.210000000000000E+10   8.812221012167316E-2    6.899029365569249E-2
 1.211000000000000E+10   9.748884527051002E-2   -4.199253218922490E-3
 1.212000000000000E+10   5.569544542401460E-2   -3.955970967242421E-2
 1.213000000000000E+10   8.942306803811077E-3   -3.142541312030012E-2
 1.214000000000000E+10   1.742895958726245E-2   -1.039701011337057E-2
 1.215000000000000E+10   2.990601318340672E-2   -4.276703131773169E-2
 1.216000000000000E+10  -1.575048370255524E-2   -6.423517832259776E-2
 1.217000000000000E+10  -7.976276894879278E-2   -2.501175398801275E-2
 1.218000000000000E+10  -5.757904321875174E-2    5.442858932325059E-2
 1.219000000000000E+10   1.428330591844101E-2    6.982395797907862E-2
 1.220000000000000E+10   3.305181396114009E-2    2.342134455299159E-2
 1.221000000000000E+10   1.443523636745722E-3    2.039371838514363E-3
 1.222000000000000E+10   2.130100637915831E-3    4.388859801513403E-2
 1.223000000000000E+10   6.180155649671462E-2    5.476599222771165E-2
 1.224000000000000E+10   9.421218730388813E-2   -8.811679107807823E-3
 1.225000000000000E+10   5.155385695989991E-2   -6.809954390206649E-2
 1.226000000000000E+10  -7.246781978502415E-3   -5.907632057483784E-2
 1.227000000000000E+10  -1.950907324807324E-2   -1.733737736965836E-2
 1.228000000000000E+10   4.100359860916983E-3   -2.273399839111556E-2
 1.229000000000000E+10  -4.358229782183025E-3   -4.800684193786694E-2
 1.230000000000000E+10  -5.277633308517822E-2   -4.094732863416482E-2
 1.231000000000000E+10  -7.854097859980262E-2    2.308633508159684E-2
 1.232000000000000E+10  -3.236640749975873E-2    7.594503885591468E-2
 1.233000000000000E+10   3.664214142588759E-2    6.102997526425595E-2
 1.234000000000000E+10   3.401270190402932E-2    5.658279436571089E-3
 1.235000000000000E+10   1.385603480684557E-3    3.472543789515723E-3
 1.236000000000000E+10   2.489522507406291E-2    3.555216165767883E-2
 1.237000000000000E+10   7.795328803666844E-2    1.531444376504306E-2
 1.238000000000000E+10   7.057228832082292E-2   -6.316631302710257E-2
 1.239000000000000E+10  -3.405587607055771E-3   -9.794941185387376E-2
 1.240000000000000E+10  -6.781845564557570E-2   -4.811921353308755E-2
 1.241000000000000E+10  -4.811146576729491E-2    1.271240258044840E-2
 1.242000000000000E+10  -1.428343362536737E-2   -9.324055010591834E-4
 1.243000000000000E+10  -4.062980056133131E-2   -1.996459679420118E-2
 1.244000000000000E+10  -7.186359700836387E-2    3.192349438286859E-2
 1.245000000000000E+10  -3.592804606975534E-2    8.765847326718960E-2
 1.246000000000000E+10   3.699582483091766E-2    8.394013055759007E-2
 1.247000000000000E+10   6.908763792490560E-2    2.179332893387535E-2
 1.248000000000000E+10   4.383661459910659E-2   -2.213017674796616E-2
 1.249000000000000E+10   1.120539937216074E-2   -1.982256121690332E-2
 1.250000000000000E+10   2.748486742964191E-2    5.265456668070038E-3
