#  HZ   S   RI   R     50.00 
! Rohde & Schwarz Vector Network Analyzer 
! Rohde-Schwarz,ZNA43-4Port,1332450044101932,2.92
! Created: UTC 6/9/2026, 6:46:49 AM
! freq[Hz]                re:S11                  im:S11
 8.000000000000000E9    -2.228814152183386E-1   -1.776699774090327E-1
 8.010000000000000E9    -2.245887401993613E-1   -2.152845656598776E-2
 8.020000000000000E9    -1.648491919419451E-1    6.644605290438513E-2
 8.030000000000000E9    -1.244812434086460E-1    9.761820062029920E-2
 8.040000000000000E9    -1.060853745976904E-1    1.419880488589810E-1
 8.050000000000000E9    -2.207399269216250E-2    2.382362227773655E-1
 8.060000000000000E9     1.210956981412248E-1    2.429926289643685E-1
 8.070000000000000E9     2.520476399614326E-1    1.385137691442165E-1
 8.080000000000000E9     2.892763074434213E-1   -4.318729006127307E-2
 8.090000000000000E9     1.906986111999413E-1   -1.737726143642675E-1
 8.100000000000000E9     6.757997119164338E-2   -1.991080892008340E-1
 8.110000000000000E9    -1.610919289570935E-2   -1.800416571524895E-1
 8.120000000000000E9    -5.777818880147312E-2   -1.602775137100793E-1
 8.130000000000000E9    -1.349791145433887E-1   -1.431051672232700E-1
 8.140000000000000E9    -2.421517478172022E-1   -6.751613890613355E-2
 8.150000000000000E9    -2.601284743901728E-1    9.638114265097973E-2
 8.160000000000000E9    -1.435635037456992E-1    2.652135771545605E-1
 8.170000000000000E9     4.731342880345797E-2    3.021830509257318E-1
 8.180000000000000E9     1.968266496658859E-1    1.988076056784859E-1
 8.190000000000000E9     2.317865806116021E-1    5.792571671770429E-2
 8.200000000000000E9     1.990605452825708E-1   -2.158913791608010E-2
 8.210000000000000E9     1.700629821373418E-1   -8.374491845864000E-2
 8.220000000000000E9     1.571585439384758E-1   -1.524049822310539E-1
 8.230000000000000E9     7.487823458953619E-2   -2.453680669162651E-1
 8.240000000000000E9    -9.955628374563197E-2   -2.517795794018252E-1
 8.250000000000000E9    -2.497567687732511E-1   -1.327952382439738E-1
 8.260000000000000E9    -2.691438846661104E-1    5.213345395992604E-2
 8.270000000000000E9    -1.597168085175637E-1    2.051487910408357E-1
 8.280000000000000E9    -6.077025224672010E-3    2.185699545014763E-1
 8.290000000000000E9     7.785050454027216E-2    1.510422741887205E-1
 8.300000000000000E9     1.133170400544657E-1    1.112167995104740E-1
 8.310000000000000E9     1.420163498129947E-1    9.057135668454867E-2
 8.320000000000000E9     1.998961359029768E-1    2.602459847178880E-2
 8.330000000000000E9     2.140961184688449E-1   -1.066177770908548E-1
 8.340000000000000E9     1.104496131658966E-1   -2.177120761780454E-1
 8.350000000000000E9    -5.763228340189655E-2   -2.271440711034059E-1
 8.360000000000000E9    -1.752273593436341E-1   -1.123426169287596E-1
 8.370000000000000E9    -1.574012733206963E-1    3.788119994560346E-2
 8.380000000000000E9    -7.132415853081235E-2    1.047122654510368E-1
 8.390000000000000E9    -2.348230547385014E-2    7.292896950276373E-2
 8.400000000000000E9    -2.513721269337825E-2    7.065853981001297E-2
 8.410000000000000E9    -1.407128223132990E-3    1.238773369711760E-1
 8.420000000000000E9     8.936964215597483E-2    1.509914539917772E-1
 8.430000000000000E9     1.984582975185188E-1    6.638111550634129E-2
 8.440000000000000E9     1.985868973955263E-1   -7.312660552762387E-2
 8.450000000000000E9     9.937285709354569E-2   -1.504726406217458E-1
 8.460000000000000E9    -3.491681305833479E-2   -1.426040008755652E-1
 8.470000000000000E9    -6.332268554911309E-2   -6.089338810635032E-2
 8.480000000000000E9    -2.964443026954210E-2   -7.419501143711167E-3
 8.490000000000000E9    -5.044718550621610E-3   -2.914916908218219E-2
 8.500000000000000E9    -6.175082899147234E-2   -4.866605211982400E-2
 8.510000000000000E9    -1.134774245995851E-1    2.461239403284895E-2
 8.520000000000000E9    -5.614659366260316E-2    1.343836714603339E-1
 8.530000000000000E9     5.537343587131152E-2    1.484442792820765E-1
 8.540000000000000E9     1.463820099484934E-1    5.713050180236327E-2
 8.550000000000000E9     1.268903048493587E-1   -5.176507828330233E-2
 8.560000000000000E9     3.150107757362666E-2   -7.076716281738164E-2
 8.570000000000000E9    -1.031390263284063E-2   -1.696186171240493E-2
 8.580000000000000E9     3.128462916003113E-2    1.496849829203771E-2
 8.590000000000000E9     6.853937913861431E-2   -2.921930326579535E-2
 8.600000000000000E9     1.374044277207309E-2   -9.721075675676231E-2
 8.610000000000000E9    -8.119378356165236E-2   -7.372306053226449E-2
 8.620000000000000E9    -1.019063871356401E-1    4.615573366689556E-2
 8.630000000000000E9    -9.120593787458126E-3    1.312982351171518E-1
 8.640000000000000E9     1.038823602300321E-1    8.540452980780240E-2
 8.650000000000000E9     1.082030155464994E-1   -2.571013154479245E-2
 8.660000000000000E9     4.286947667227615E-2   -6.330119149498893E-2
 8.670000000000000E9    -1.633658292697737E-2   -3.420678410980778E-2
 8.680000000000000E9    -1.485614674297898E-3    1.888455159402092E-2
 8.690000000000000E9     6.040699787727630E-2    1.028918930425886E-2
 8.700000000000000E9     5.780167564323299E-2   -5.592332522262220E-2
 8.710000000000000E9    -3.194550613559070E-2   -8.296939522760968E-2
 8.720000000000000E9    -9.695103545244167E-2   -1.036825406921189E-2
 8.730000000000000E9    -4.542828786297481E-2    9.884022412092595E-2
 8.740000000000000E9     6.806743155592042E-2    9.400701181674039E-2
 8.750000000000000E9     1.138798542483340E-1   -9.986304675914026E-3
 8.760000000000000E9     5.328800469986278E-2   -7.786730678031911E-2
 8.770000000000000E9    -2.852438155013255E-2   -5.416733948319082E-2
 8.780000000000000E9    -4.627040506590348E-2    1.708862291421033E-2
 8.790000000000000E9     1.736422616352474E-2    3.906420287081489E-2
 8.800000000000000E9     5.242341366370753E-2   -5.765576067832835E-3
 8.810000000000000E9     1.227062623650149E-2   -5.180799431531802E-2
 8.820000000000000E9    -6.521948469384238E-2   -3.044127666500994E-2
 8.830000000000000E9    -6.303293093509957E-2    7.434475027933235E-2
 8.840000000000000E9     3.677773841515471E-2    1.217473718763816E-1
 8.850000000000000E9     1.141214126495537E-1    4.514669188189829E-2
 8.860000000000000E9     8.826157395946189E-2   -5.466718634287883E-2
 8.870000000000000E9     1.090451912348283E-2   -7.261717349594511E-2
 8.880000000000000E9    -4.050490563594678E-2   -7.754296554712872E-3
 8.890000000000000E9     8.360741285053312E-3    5.292227333501801E-2
 8.900000000000000E9     8.338641640481366E-2    1.206888163714844E-2
 8.910000000000000E9     7.396582000477593E-2   -6.547895273278241E-2
 8.920000000000000E9    -1.495438726128347E-2   -9.775476713692376E-2
 8.930000000000000E9    -8.668965638323833E-2   -3.861821832556637E-2
 8.940000000000000E9    -5.220774944511742E-2    5.417642403978145E-2
 8.950000000000000E9     2.103925468797724E-2    6.747701413644523E-2
 8.960000000000000E9     4.359454212024089E-2   -3.925761456674911E-4
 8.970000000000000E9    -2.149275586819193E-2   -2.981967201771946E-2
 8.980000000000000E9    -6.511177728481515E-2    4.004715977181997E-2
 8.990000000000000E9    -1.297403031962576E-2    1.218070043208836E-1
 9.000000000000000E9     1.002534193307681E-1    9.979536841359007E-2
 9.010000000000000E9     1.652841914228037E-1    7.686583677310399E-3
 9.020000000000000E9     1.182919058271951E-1   -1.044624308845889E-1
 9.030000000000000E9     5.643606208765990E-3   -1.318864725823390E-1
 9.040000000000000E9    -5.660952898520871E-2   -6.542909216327482E-2
 9.050000000000000E9    -3.780605284706756E-2   -1.442128310092412E-2
 9.060000000000000E9    -2.296921206996835E-2   -3.017610769717226E-2
 9.070000000000000E9    -7.324940955706556E-2   -4.368216945301340E-2
 9.080000000000000E9    -1.311111903863013E-1    2.878030551927095E-2
 9.090000000000000E9    -1.023350301575311E-1    1.590597498407403E-1
 9.100000000000000E9     4.363044931265676E-2    2.192083251073315E-1
 9.110000000000000E9     1.866712307282870E-1    1.406479940724013E-1
 9.120000000000000E9     2.223841328010042E-1   -1.342251212109933E-2
 9.130000000000000E9     1.455043980958358E-1   -1.303632453426290E-1
 9.140000000000000E9     3.298606079203255E-2   -1.538454147347040E-1
 9.150000000000000E9    -1.329017416206712E-2   -1.076216510263554E-1
 9.160000000000000E9    -2.607937285053358E-2   -9.688284002368115E-2
 9.170000000000000E9    -8.240396364191177E-2   -1.176102248440506E-1
 9.180000000000000E9    -1.828798912026292E-1   -6.892075640110494E-2
 9.190000000000000E9    -2.245503457660344E-1    8.234015779791364E-2
 9.200000000000000E9    -1.295360380025994E-1    2.305857044756471E-1
 9.210000000000000E9     5.460194809175025E-2    2.600177716218031E-1
 9.220000000000000E9     1.954155258123063E-1    1.653478415228303E-1
 9.230000000000000E9     2.203633139504574E-1    1.218309283479786E-2
 9.240000000000000E9     1.337266874973817E-1   -6.939138567647114E-2
 9.250000000000000E9     9.193969060212440E-2   -7.914248078952625E-2
 9.260000000000000E9     8.358270885966421E-2   -9.945188899315009E-2
 9.270000000000000E9     5.360747075970272E-2   -1.552432841698094E-1
 9.280000000000000E9    -6.608622641664454E-2   -2.004804437986194E-1
 9.290000000000000E9    -1.987061605008203E-1   -1.214410044702631E-1
 9.300000000000000E9    -2.407296537093504E-1    5.493115405599525E-2
 9.310000000000000E9    -1.368731897254213E-1    1.936014891838363E-1
 9.320000000000000E9     1.043061862523861E-2    2.025014919920090E-1
 9.330000000000000E9     1.057777778762177E-1    1.280389003742916E-1
 9.340000000000000E9     9.346372700859355E-2    5.444001831625763E-2
 9.350000000000000E9     8.416195265530715E-2    5.634339214131398E-2
 9.360000000000000E9     1.360465084772788E-1    5.740748126143078E-2
 9.370000000000000E9     1.986576834429948E-1   -3.656047718351978E-2
 9.380000000000000E9     1.405599380042144E-1   -1.800239016808828E-1
 9.390000000000000E9    -1.181479333865532E-2   -2.427938117277299E-1
 9.400000000000000E9    -1.546391754939381E-1   -1.704472854108429E-1
 9.410000000000000E9    -2.008753602752272E-1   -2.612116221450494E-2
 9.420000000000000E9    -1.377969913618649E-1    7.767626688080462E-2
 9.430000000000000E9    -6.677731175080186E-2    8.747644542994025E-2
 9.440000000000000E9    -6.295792894390244E-2    7.776097306774216E-2
 9.450000000000000E9    -6.666112460814244E-2    1.381958185494908E-1
 9.460000000000000E9     2.108824428522525E-2    2.054167712523657E-1
 9.470000000000000E9     1.738664098073117E-1    1.803370533968741E-1
 9.480000000000000E9     2.669218299336651E-1    3.428166399607013E-2
 9.490000000000000E9     2.242791328850675E-1   -1.393425605506625E-1
 9.500000000000000E9     7.501600347971056E-2   -2.191756530531666E-1
 9.510000000000000E9    -5.108193481832671E-2   -1.825049037486351E-1
 9.520000000000000E9    -9.930467120170561E-2   -1.090791837826552E-1
 9.530000000000000E9    -9.775033092997874E-2   -7.338815242063708E-2
 9.540000000000000E9    -1.341657895936821E-1   -6.692251350048360E-2
 9.550000000000000E9    -2.037222703103822E-1    1.032245821584155E-2
 9.560000000000000E9    -1.971672956523515E-1    1.557047304816936E-1
 9.570000000000000E9    -6.261886879689005E-2    2.743080282245964E-1
 9.580000000000000E9     1.223689866221252E-1    2.496166141662450E-1
 9.590000000000000E9     2.254158251051042E-1    1.067079501668794E-1
 9.600000000000000E9     2.079461166249248E-1   -4.104336057770220E-2
 9.610000000000000E9     1.162176505996784E-1   -1.074231098288443E-1
 9.620000000000000E9     5.527926989486548E-2   -9.145188425327780E-2
 9.630000000000000E9     5.800503605089501E-2   -1.032639226804291E-1
 9.640000000000000E9     1.271640684509339E-2   -1.592336594621285E-1
 9.650000000000000E9    -1.026264051747843E-1   -1.747752877781094E-1
 9.660000000000000E9    -2.189812167092117E-1   -8.073067720360862E-2
 9.670000000000000E9    -2.268524414694346E-1    8.673213077720537E-2
 9.680000000000000E9    -1.147251132068812E-1    2.054866568313692E-1
 9.690000000000000E9     3.036686444973578E-2    1.981027393968096E-1
 9.700000000000000E9     9.901931938264796E-2    1.157283367957341E-1
 9.710000000000000E9     7.425546007993504E-2    5.535759904374941E-2
 9.720000000000000E9     8.137459374886175E-2    7.046417326318000E-2
 9.730000000000000E9     1.433230034280014E-1    5.469299055840099E-2
 9.740000000000000E9     1.984780977800550E-1   -4.154484155735212E-2
 9.750000000000000E9     1.523771425558876E-1   -1.739390381877338E-1
 9.760000000000000E9     4.261914043982875E-4   -2.383766995708364E-1
 9.770000000000000E9    -1.507383547572322E-1   -1.714334787642748E-1
 9.780000000000000E9    -1.872065127877563E-1   -3.492278032072721E-2
 9.790000000000000E9    -1.379040559764784E-1    5.618521754941776E-2
 9.800000000000000E9    -8.417909287452516E-2    6.703665923267449E-2
 9.810000000000000E9    -8.572343836208655E-2    7.176529976854280E-2
 9.820000000000000E9    -9.229213480306012E-2    1.453352522820545E-1
 9.830000000000000E9     6.947975537811592E-3    2.295993634793184E-1
 9.840000000000000E9     1.712285863883035E-1    2.091788495750839E-1
 9.850000000000000E9     2.769176685859294E-1    5.093620275710947E-2
 9.860000000000000E9     2.393381970578409E-1   -1.264898868874289E-1
 9.870000000000000E9     1.091439311270552E-1   -2.238882059858915E-1
 9.880000000000000E9    -2.823839659030128E-2   -2.006441434885371E-1
 9.890000000000000E9    -8.964774567957809E-2   -1.304455409439125E-1
 9.900000000000000E9    -9.881645549923879E-2   -9.392766643151432E-2
 9.910000000000000E9    -1.520358937486747E-1   -8.821892098813698E-2
 9.920000000000000E9    -2.279067202837475E-1    2.365277825026032E-4
 9.930000000000000E9    -2.191673080129656E-1    1.633817142746270E-1
 9.940000000000000E9    -7.558061933431057E-2    2.902124187632322E-1
 9.950000000000000E9     1.316304525166653E-1    2.764541414911606E-1
 9.960000000000000E9     2.551685113236990E-1    1.273357496706706E-1
 9.970000000000000E9     2.345370181074036E-1   -4.329620198187410E-2
 9.980000000000000E9     1.403187480771528E-1   -1.280925677901873E-1
 9.990000000000000E9     7.248250598791850E-2   -1.286858376160463E-1
 1.000000000000000E+10   5.412626299408355E-2   -1.409150268165762E-1
 1.001000000000000E+10  -4.250806898260316E-3   -1.978400937935438E-1
 1.002000000000000E+10  -1.366690477787392E-1   -2.039605133793163E-1
 1.003000000000000E+10  -2.659236908444547E-1   -8.344741193502175E-2
 1.004000000000000E+10  -2.769730030300932E-1    1.134198105114690E-1
 1.005000000000000E+10  -1.294763360902334E-1    2.552696353039357E-1
 1.006000000000000E+10   5.875606896351756E-2    2.451083924140137E-1
 1.007000000000000E+10   1.493655291838013E-1    1.305835331484989E-1
 1.008000000000000E+10   1.328151801494458E-1    3.651353993638430E-2
 1.009000000000000E+10   1.067812069010997E-1    1.665596955788876E-2
 1.010000000000000E+10   1.399051201445371E-1    1.015939876724886E-2
 1.011000000000000E+10   1.735526966380470E-1   -8.977354613950543E-2
 1.012000000000000E+10   9.915781920156656E-2   -2.129965747732280E-1
 1.013000000000000E+10  -6.401516340975512E-2   -2.490766951496887E-1
 1.014000000000000E+10  -2.099586940351787E-1   -1.411496028694162E-1
 1.015000000000000E+10  -2.293538378341098E-1    4.123664674470919E-2
 1.016000000000000E+10  -1.042652510571775E-1    1.415213362704736E-1
 1.017000000000000E+10  -5.461659986966742E-3    1.101188124031498E-1
 1.018000000000000E+10  -7.855074121011258E-3    5.838703355870038E-2
 1.019000000000000E+10  -2.763043596880009E-2    8.176877696740170E-2
 1.020000000000000E+10   2.750825470117818E-2    1.471893768511691E-1
 1.021000000000000E+10   1.440709877681055E-1    1.268908345390827E-1
 1.022000000000000E+10   2.155850496316102E-1   -9.446780228481502E-4
 1.023000000000000E+10   1.610098733590958E-1   -1.477911325814174E-1
 1.024000000000000E+10   1.362064852279134E-2   -1.985443792393970E-1
 1.025000000000000E+10  -1.076279472567932E-1   -1.243867991279229E-1
 1.026000000000000E+10  -9.202249160555627E-2   -1.392715607383100E-2
 1.027000000000000E+10  -2.329728845462377E-2   -7.074511056291462E-5
 1.028000000000000E+10  -3.785127423965043E-2   -5.418766989180449E-2
 1.029000000000000E+10  -1.285469280653562E-1   -3.588943738777537E-2
 1.030000000000000E+10  -1.564024897643146E-1    9.346197012778459E-2
 1.031000000000000E+10  -4.307437236910554E-2    2.008935790745276E-1
 1.032000000000000E+10   1.107352404782457E-1    1.730475048017490E-1
 1.033000000000000E+10   1.903487420312241E-1    4.580513267103132E-2
 1.034000000000000E+10   1.501904337358625E-1   -8.100369450489897E-2
 1.035000000000000E+10   3.923514792160006E-2   -1.072724724170905E-1
 1.036000000000000E+10  -6.419016661227770E-3   -5.015733930941606E-2
 1.037000000000000E+10   4.063041357052907E-2   -3.550978393163748E-2
 1.038000000000000E+10   5.503091812208138E-2   -1.159818885944146E-1
 1.039000000000000E+10  -6.269369328432922E-2   -1.780111899143514E-1
 1.040000000000000E+10  -1.965516554761654E-1   -9.599267648000379E-2
 1.041000000000000E+10  -2.103011417193153E-1    7.446710860920855E-2
 1.042000000000000E+10  -9.522861722137158E-2    1.908866366843965E-1
 1.043000000000000E+10   5.167291641170088E-2    1.699593206159137E-1
 1.044000000000000E+10   1.076492028829238E-1    6.364941866409451E-2
 1.045000000000000E+10   6.143703890496268E-2    3.263046179965069E-4
 1.046000000000000E+10   2.588707307767807E-2    2.873137840137463E-2
 1.047000000000000E+10   8.252951965891867E-2    5.942687766014758E-2
 1.048000000000000E+10   1.617651117598451E-1   -1.090979284089432E-2
 1.049000000000000E+10   1.279118766416489E-1   -1.525251098037633E-1
 1.050000000000000E+10  -3.548896057704648E-2   -2.122343680573806E-1
 1.051000000000000E+10  -1.674733947708152E-1   -1.146339420509300E-1
 1.052000000000000E+10  -1.675154268744628E-1    4.061476495213075E-2
 1.053000000000000E+10  -6.127987348054357E-2    1.094357218355111E-1
 1.054000000000000E+10   1.963679585806330E-2    6.719886512701212E-2
 1.055000000000000E+10  -2.739404986961297E-3    1.403203218351242E-2
 1.056000000000000E+10  -5.164183289526077E-2    4.668603831063334E-2
 1.057000000000000E+10  -1.730890357344674E-2    1.292620111477292E-1
 1.058000000000000E+10   1.091489881355841E-1    1.403545402466070E-1
 1.059000000000000E+10   2.051538858578718E-1    2.322803473986845E-2
 1.060000000000000E+10   1.594879875063367E-1   -1.310512656165994E-1
 1.061000000000000E+10   1.480133744412894E-2   -1.785552919360462E-1
 1.062000000000000E+10  -9.792759233019147E-2   -9.236589375816782E-2
 1.063000000000000E+10  -6.843371199635950E-2    1.204712715904387E-2
 1.064000000000000E+10  -1.210668989339130E-6   -3.312115151335396E-3
 1.065000000000000E+10  -2.207391746445656E-2   -6.057451272626369E-2
 1.066000000000000E+10  -1.074660238199181E-1   -3.489581747925868E-2
 1.067000000000000E+10  -1.436440776659730E-1    7.339997175764081E-2
 1.068000000000000E+10  -5.460540206420129E-2    1.980291811907219E-1
 1.069000000000000E+10   1.127381978945647E-1    1.960156296491942E-1
 1.070000000000000E+10   2.085257642285872E-1    5.797174421985153E-2
 1.071000000000000E+10   1.645049597812010E-1   -8.410739957144868E-2
 1.072000000000000E+10   5.603414750089016E-2   -1.130471707418106E-1
 1.073000000000000E+10   1.288725072831068E-2   -4.996289697857643E-2
 1.074000000000000E+10   6.144034524584877E-2   -4.572474597944827E-2
 1.075000000000000E+10   5.310646783354521E-2   -1.163191270418996E-1
 1.076000000000000E+10  -5.014753971439622E-2   -1.655268265497281E-1
 1.077000000000000E+10  -1.802803437582609E-1   -9.402275451708121E-2
 1.078000000000000E+10  -1.971031189142497E-1    7.361488181869978E-2
 1.079000000000000E+10  -6.805854211538465E-2    1.929315417723212E-1
 1.080000000000000E+10   8.751958438562639E-2    1.683700107898339E-1
 1.081000000000000E+10   1.556871104946110E-1    4.460159113936478E-2
 1.082000000000000E+10   9.423353159722102E-2   -5.723125446771654E-2
 1.083000000000000E+10   1.782076855104946E-2   -2.523435474817661E-2
 1.084000000000000E+10   5.662741620229497E-2    1.535545660973851E-2
 1.085000000000000E+10   1.176203816643973E-1   -4.984741037135943E-2
 1.086000000000000E+10   7.115415619350342E-2   -1.461010717433919E-1
 1.087000000000000E+10  -6.010532536809116E-2   -1.754722691705155E-1
 1.088000000000000E+10  -1.781816266292093E-1   -7.503677782186341E-2
 1.089000000000000E+10  -1.702849624236769E-1    8.380781317831561E-2
 1.090000000000000E+10  -3.941507877911408E-2    1.714319259931936E-1
 1.091000000000000E+10   9.381391720876218E-2    1.087036628145623E-1
 1.092000000000000E+10   9.949906121327308E-2   -9.975257861355679E-3
 1.093000000000000E+10   1.386152537757591E-2   -1.651425007342444E-2
 1.094000000000000E+10   1.220851216371886E-2    4.495047616450534E-2
 1.095000000000000E+10   8.212779948586746E-2    5.917030936460529E-2
 1.096000000000000E+10   1.457854973778316E-1   -2.843001386717982E-2
 1.097000000000000E+10   9.123670340144549E-2   -1.415075511960385E-1
 1.098000000000000E+10  -4.829645386800369E-2   -1.620641744011121E-1
 1.099000000000000E+10  -1.345348008729476E-1   -5.384244049300983E-2
 1.100000000000000E+10  -9.030753798147469E-2    7.553113431599796E-2
 1.101000000000000E+10   2.615641773691430E-2    9.441545136380806E-2
 1.102000000000000E+10   7.801033505920882E-2   -7.493749885396495E-3
 1.103000000000000E+10  -1.098038453430240E-4   -7.140844556579033E-2
 1.104000000000000E+10  -7.832548473919917E-2   -7.091266431807883E-3
 1.105000000000000E+10  -3.646810350228486E-2    8.734905417813463E-2
 1.106000000000000E+10   6.682747811400983E-2    9.408143285473197E-2
 1.107000000000000E+10   1.241940856743549E-1   -1.775609520761342E-4
 1.108000000000000E+10   5.954993918011538E-2   -8.922278202330185E-2
 1.109000000000000E+10  -4.342647599040137E-2   -7.656521382689627E-2
 1.110000000000000E+10  -7.328047701379808E-2    2.107570479742919E-2
 1.111000000000000E+10   1.830797212427733E-2    9.249825967745137E-2
 1.112000000000000E+10   1.181505200296653E-1    2.396540502246653E-2
 1.113000000000000E+10   8.514968348015974E-2   -9.407203467455723E-2
 1.114000000000000E+10  -3.275293644048076E-2   -1.103783913954961E-1
 1.115000000000000E+10  -1.109697711375535E-1   -6.689690175533113E-3
 1.116000000000000E+10  -4.218359491744837E-2    8.773364457062789E-2
 1.117000000000000E+10   6.604229896181882E-2    6.444483061519744E-2
 1.118000000000000E+10   8.079668771226384E-2   -2.703764966848420E-2
 1.119000000000000E+10   3.573931447715954E-3   -7.230931564277580E-2
 1.120000000000000E+10  -6.797069734715026E-2   -1.665919874196310E-2
 1.121000000000000E+10  -4.598545117645646E-2    8.255707538216386E-2
 1.122000000000000E+10   6.853085652636193E-2    1.028698162273078E-1
 1.123000000000000E+10   1.377465866424220E-1   -1.304388778737431E-2
 1.124000000000000E+10   5.878113843597967E-2   -1.232554223139224E-1
 1.125000000000000E+10  -7.142741819016474E-2   -8.367852891691707E-2
 1.126000000000000E+10  -8.636627653055011E-2    4.029122482185418E-2
 1.127000000000000E+10   7.862726062831026E-3    9.128946171642653E-2
 1.128000000000000E+10   8.601235762795562E-2    3.685591978159547E-2
 1.129000000000000E+10   6.475577594731272E-2   -5.576865057781193E-2
 1.130000000000000E+10  -3.163672072118310E-2   -7.658628806231116E-2
 1.131000000000000E+10  -8.414184407794777E-2    2.469373643535027E-2
 1.132000000000000E+10   1.040129071483929E-5    1.180274523317028E-1
 1.133000000000000E+10   1.121392378937610E-1    8.003871698714973E-2
 1.134000000000000E+10   1.352621109571262E-1   -5.051714232518983E-2
 1.135000000000000E+10   6.368364483398626E-3   -1.200175737315883E-1
 1.136000000000000E+10  -9.013310955707968E-2   -2.987665600733058E-2
 1.137000000000000E+10  -4.100995762021924E-2    8.032550127668327E-2
 1.138000000000000E+10   7.321445189518072E-2    7.778758606242234E-2
 1.139000000000000E+10   1.135877678484766E-1   -1.594488889986244E-2
 1.140000000000000E+10   4.275139288291190E-2   -9.599269373535092E-2
 1.141000000000000E+10  -6.254484207156502E-2   -6.650328080331297E-2
 1.142000000000000E+10  -7.355711958787160E-2    4.546233229384448E-2
 1.143000000000000E+10   2.451106769980171E-2    1.028765830421479E-1
 1.144000000000000E+10   1.185289821178457E-1    2.351031639689814E-2
 1.145000000000000E+10   8.251773093896293E-2   -9.327390468172617E-2
 1.146000000000000E+10  -5.200530775368034E-2   -8.935076578863044E-2
 1.147000000000000E+10  -9.672328832712619E-2    2.593215009677035E-2
 1.148000000000000E+10  -8.766830126370246E-3    1.073936031447929E-1
 1.149000000000000E+10   9.953424927235482E-2    6.390133851930843E-2
 1.150000000000000E+10   1.075073872007948E-1   -5.018162243983976E-2
 1.151000000000000E+10   9.265555631667680E-3   -1.033249135649425E-1
 1.152000000000000E+10  -6.831341366380145E-2   -2.264055212250286E-2
 1.153000000000000E+10  -3.836335813791374E-2    7.567362550291434E-2
 1.154000000000000E+10   6.572753444998974E-2    8.431590922852453E-2
 1.155000000000000E+10   1.137881542403728E-1   -2.875358753429052E-2
 1.156000000000000E+10   2.586148635649788E-2   -1.156881131660929E-1
 1.157000000000000E+10  -9.584280652359993E-2   -5.420009637635794E-2
 1.158000000000000E+10  -8.285017179696161E-2    7.107090208133807E-2
 1.159000000000000E+10   2.984129719911234E-2    1.124942614609815E-1
 1.160000000000000E+10   1.111495672842939E-1    3.739442780711609E-2
 1.161000000000000E+10   6.971012772077975E-2   -6.588033419985399E-2
 1.162000000000000E+10  -3.361955847873281E-2   -6.870051707577782E-2
 1.163000000000000E+10  -6.119218180864273E-2    3.495106773663494E-2
 1.164000000000000E+10   2.490865876783307E-2    1.093883884612812E-1
 1.165000000000000E+10   1.369715742425506E-1    4.225084971275828E-2
 1.166000000000000E+10   1.266224604850699E-1   -8.456422544616733E-2
 1.167000000000000E+10  -4.530996024012172E-3   -1.368920444566363E-1
 1.168000000000000E+10  -1.079128894250139E-1   -5.659532037699705E-2
 1.169000000000000E+10  -7.815877980947886E-2    6.338891561946054E-2
 1.170000000000000E+10   3.964813916202301E-2    7.417101707534161E-2
 1.171000000000000E+10   7.150448692960154E-2   -1.697950373664057E-2
 1.172000000000000E+10  -1.703708379045302E-2   -7.017168460778279E-2
 1.173000000000000E+10  -9.650499761478429E-2    5.509569663834743E-3
 1.174000000000000E+10  -6.109369494830497E-2    1.264577933474390E-1
 1.175000000000000E+10   6.938013032679372E-2    1.532563767749931E-1
 1.176000000000000E+10   1.760717989122436E-1    4.324415724048309E-2
 1.177000000000000E+10   1.434021257503471E-1   -1.002460764542610E-1
 1.178000000000000E+10   3.341892840021411E-3   -1.317172190308561E-1
 1.179000000000000E+10  -7.529358482302140E-2   -4.393848816899726E-2
 1.180000000000000E+10  -2.296755655408738E-2    4.139299886554644E-2
 1.181000000000000E+10   4.634714056406145E-2    7.296948483480853E-3
 1.182000000000000E+10   1.767648881986533E-2   -7.396465585467862E-2
 1.183000000000000E+10  -9.637688545524051E-2   -6.798896000487946E-2
 1.184000000000000E+10  -1.407492420573337E-1    6.884488645575604E-2
 1.185000000000000E+10  -3.920497790743100E-2    1.920441712938191E-1
 1.186000000000000E+10   1.191510730865589E-1    1.709149067324493E-1
 1.187000000000000E+10   1.986601598614510E-1    3.823381041755754E-2
 1.188000000000000E+10   1.375953392502372E-1   -9.813711887828215E-2
 1.189000000000000E+10   1.604428790271128E-2   -1.056330645776415E-1
 1.190000000000000E+10  -8.502660123360819E-3   -2.836537043659513E-2
 1.191000000000000E+10   5.622081493717701E-2   -5.574004743339686E-3
 1.192000000000000E+10   6.583029881257338E-2   -8.308269370083300E-2
 1.193000000000000E+10  -3.022495743937424E-2   -1.455448258127191E-1
 1.194000000000000E+10  -1.577685132251011E-1   -7.504756688266785E-2
 1.195000000000000E+10  -1.729418367143300E-1    8.177072632468210E-2
 1.196000000000000E+10  -5.030234102593097E-2    1.927987163487292E-1
 1.197000000000000E+10   1.164383231937897E-1    1.537638062047919E-1
 1.198000000000000E+10   1.629286216654634E-1    1.222756928633315E-2
 1.199000000000000E+10   6.871647221089940E-2   -7.509616135909254E-2
 1.200000000000000E+10  -8.358585499904042E-3   -2.790516769688583E-2
 1.201000000000000E+10   2.925649598224121E-2    3.060868860908924E-2
 1.202000000000000E+10   1.078408181420671E-1   -7.051713779415114E-3
 1.203000000000000E+10   9.080115479907634E-2   -1.269937052297855E-1
 1.204000000000000E+10  -4.969518220116381E-2   -1.760381909013168E-1
 1.205000000000000E+10  -1.709108681833713E-1   -6.467669437175994E-2
 1.206000000000000E+10  -1.604466053225506E-1    9.034976595154756E-2
 1.207000000000000E+10  -2.724517337667064E-2    1.670331600901094E-1
 1.208000000000000E+10   1.032071887057607E-1    9.122173461565548E-2
 1.209000000000000E+10   8.091542464494533E-2   -3.057010691073398E-2
 1.210000000000000E+10  -1.858697670058223E-2   -3.736124349954471E-2
 1.211000000000000E+10  -3.424722869912397E-2    5.338023152193157E-2
 1.212000000000000E+10   6.429303676977852E-2    1.061587716519424E-1
 1.213000000000000E+10   1.467572731950495E-1    7.927321512830739E-3
 1.214000000000000E+10   9.356860320453744E-2   -1.256965834887820E-1
 1.215000000000000E+10  -4.358633137683124E-2   -1.491756676534585E-1
 1.216000000000000E+10  -1.371032761921014E-1   -3.712301858543909E-2
 1.217000000000000E+10  -9.386293126023919E-2    9.652215004164387E-2
 1.218000000000000E+10   4.530399787543374E-2    1.023490607351322E-1
 1.219000000000000E+10   8.973281932239227E-2    2.282022312759405E-3
 1.220000000000000E+10   3.134640644474612E-3   -6.558791920423757E-2
 1.221000000000000E+10  -8.276778485832420E-2   -4.198470523876690E-3
 1.222000000000000E+10  -3.719941772777285E-2    1.098716296072774E-1
 1.223000000000000E+10   9.789132981175808E-2    1.172722934449753E-1
 1.224000000000000E+10   1.605623493839715E-1   -1.068402422000506E-2
 1.225000000000000E+10   8.734025727924444E-2   -1.255408398843143E-1
 1.226000000000000E+10  -4.229413631418506E-2   -1.218068341142167E-1
 1.227000000000000E+10  -1.026970792460448E-1   -1.425293367994541E-2
 1.228000000000000E+10  -2.718834106854083E-2    6.236113902314125E-2
 1.229000000000000E+10   6.762164661728015E-2    1.682313739993875E-2
 1.230000000000000E+10   3.997879873951981E-2   -8.309342462772364E-2
 1.231000000000000E+10  -8.406889744417936E-2   -8.599702549626724E-2
 1.232000000000000E+10  -1.370180013871577E-1    3.798817881275258E-2
 1.233000000000000E+10  -4.336215383726817E-2    1.532939584225810E-1
 1.234000000000000E+10   9.228304924321303E-2    1.193291900673625E-1
 1.235000000000000E+10   1.363012082424596E-1   -1.251688356939955E-2
 1.236000000000000E+10   5.938621814325257E-2   -1.022202987744211E-1
 1.237000000000000E+10  -4.724241679936640E-2   -6.509280591985353E-2
 1.238000000000000E+10  -4.991075631665796E-2    3.312394136774594E-2
 1.239000000000000E+10   4.975457102519281E-2    4.503800917375596E-2
 1.240000000000000E+10   8.254097655781220E-2   -4.639093892990796E-2
 1.241000000000000E+10   8.819551899376747E-4   -1.358875958020189E-1
 1.242000000000000E+10  -1.375263334833986E-1   -9.106601789430920E-2
 1.243000000000000E+10  -1.574425234034004E-1    6.353355689189767E-2
 1.244000000000000E+10  -3.558643920409609E-2    1.615015244413164E-1
 1.245000000000000E+10   9.053501171329885E-2    9.840430714958247E-2
 1.246000000000000E+10   9.360823801245581E-2   -2.367167560338534E-2
 1.247000000000000E+10  -6.725109293549646E-3   -6.191263259591762E-2
 1.248000000000000E+10  -6.125053120137607E-2    1.125627070457659E-2
 1.249000000000000E+10   8.289502820438367E-3    8.582554986060582E-2
 1.250000000000000E+10   1.176554493351777E-1    3.867029920499790E-2
