#  HZ   S   RI   R     50.00 
! Rohde & Schwarz Vector Network Analyzer 
! Rohde-Schwarz,ZNA43-4Port,1332450044101932,2.92
! Created: UTC 6/9/2026, 6:46:01 AM
! freq[Hz]                re:S11                  im:S11
 8.000000000000000E9    -7.839820209447382E-2   -2.341848378125940E-1
 8.010000000000000E9    -2.146083282999915E-1   -1.693043257639896E-1
 8.020000000000000E9    -2.863064594423934E-1   -1.428359345208738E-2
 8.030000000000000E9    -2.495067756094156E-1    1.699277803327501E-1
 8.040000000000000E9    -9.497216336211303E-2    2.866074673645720E-1
 8.050000000000000E9     9.296806262942992E-2    2.893910789015910E-1
 8.060000000000000E9     2.170945328923451E-1    1.669055040946553E-1
 8.070000000000000E9     2.389840234843342E-1    2.597940638392785E-2
 8.080000000000000E9     1.850859154263074E-1   -8.353655258642891E-2
 8.090000000000000E9     1.079303253111815E-1   -1.074455200663320E-1
 8.100000000000000E9     8.551880063938194E-2   -1.080000461431927E-1
 8.110000000000000E9     7.406720810285462E-2   -1.498084005332935E-1
 8.120000000000000E9    -1.021901999604942E-2   -2.176250362987843E-1
 8.130000000000000E9    -1.529011161177844E-1   -2.014736660306570E-1
 8.140000000000000E9    -2.779586193878660E-1   -8.381295197649079E-2
 8.150000000000000E9    -2.911132313463412E-1    1.132152809896000E-1
 8.160000000000000E9    -1.600395452725304E-1    2.895975291421959E-1
 8.170000000000000E9     4.991541619293264E-2    3.275614628614777E-1
 8.180000000000000E9     2.193315217422789E-1    2.287491827755055E-1
 8.190000000000000E9     2.846322609482003E-1    6.273999817003134E-2
 8.200000000000000E9     2.335826643811145E-1   -8.710409424811186E-2
 8.210000000000000E9     1.312479150054320E-1   -1.552639756260733E-1
 8.220000000000000E9     6.071048695884551E-2   -1.534348168215834E-1
 8.230000000000000E9     2.003638462337476E-2   -1.479253243581824E-1
 8.240000000000000E9    -3.370566809954954E-2   -1.572114840481418E-1
 8.250000000000000E9    -1.188116185951203E-1   -1.406503606723986E-1
 8.260000000000000E9    -2.125815268726815E-1   -7.234169428559155E-2
 8.270000000000000E9    -2.525591412593353E-1    8.695893898553943E-2
 8.280000000000000E9    -1.568807153571871E-1    2.472932385525971E-1
 8.290000000000000E9     4.009043605240346E-2    3.047723758123578E-1
 8.300000000000000E9     2.227594250447568E-1    2.217375481798204E-1
 8.310000000000000E9     2.972009262524097E-1    4.309528798477446E-2
 8.320000000000000E9     2.310902431242873E-1   -1.348044114855908E-1
 8.330000000000000E9     8.174896643085816E-2   -2.009601069053245E-1
 8.340000000000000E9    -3.064648812536963E-2   -1.527097423038631E-1
 8.350000000000000E9    -6.588821169466265E-2   -8.040217055550050E-2
 8.360000000000000E9    -4.993545145819967E-2   -3.253670138303898E-2
 8.370000000000000E9    -3.699922111588501E-2   -3.020727712937222E-2
 8.380000000000000E9    -7.938957449383161E-2   -3.931946525259945E-2
 8.390000000000000E9    -1.355834912562381E-1    2.896340828186212E-2
 8.400000000000000E9    -1.117054102775786E-1    1.407431701099358E-1
 8.410000000000000E9     1.626701607718025E-2    2.133769500428448E-1
 8.420000000000000E9     1.600782188930555E-1    1.735476165320264E-1
 8.430000000000000E9     2.497637385518816E-1    3.673382724869512E-2
 8.440000000000000E9     2.014407534954318E-1   -1.185204254191904E-1
 8.450000000000000E9     7.205911647723993E-2   -1.848031459964098E-1
 8.460000000000000E9    -5.863292099617318E-2   -1.451382529322636E-1
 8.470000000000000E9    -9.371429595421595E-2   -5.181458032704691E-2
 8.480000000000000E9    -6.193628859011535E-2    2.952487725692013E-2
 8.490000000000000E9     1.458590620598845E-2    3.244851334080279E-2
 8.500000000000000E9     2.229159469580184E-2   -2.998762477288685E-2
 8.510000000000000E9    -4.588912690667248E-2   -4.849562902061585E-2
 8.520000000000000E9    -1.026140250730805E-1    3.017193805713686E-2
 8.530000000000000E9    -6.000092671543252E-2    1.283658325524911E-1
 8.540000000000000E9     6.618864997542788E-2    1.617097579615839E-1
 8.550000000000000E9     1.785799054074086E-1    7.588193240845799E-2
 8.560000000000000E9     1.799990976028847E-1   -5.780776871417590E-2
 8.570000000000000E9     8.173307688302529E-2   -1.457270752829764E-1
 8.580000000000000E9    -3.949983337311186E-2   -1.308658556075773E-1
 8.590000000000000E9    -1.068263715181004E-1   -3.754777898362219E-2
 8.600000000000000E9    -7.483747005967012E-2    5.491904231511616E-2
 8.610000000000000E9     1.669720039322021E-2    8.439655788319884E-2
 8.620000000000000E9     8.322419893309324E-2    2.978637862543179E-2
 8.630000000000000E9     5.652711210036081E-2   -4.209871742538127E-2
 8.640000000000000E9    -1.398582804333229E-2   -5.046739197854166E-2
 8.650000000000000E9    -5.321238096176893E-2    2.610961278430193E-2
 8.660000000000000E9     2.753454992094061E-3    8.054339123132134E-2
 8.670000000000000E9     8.943341885585707E-2    7.037561874728294E-2
 8.680000000000000E9     1.320973362932006E-1   -2.099866531646370E-2
 8.690000000000000E9     8.808718500754056E-2   -1.173656277288750E-1
 8.700000000000000E9    -3.852849925456697E-2   -1.371830177577774E-1
 8.710000000000000E9    -1.230322841062445E-1   -4.183079047939866E-2
 8.720000000000000E9    -1.054325642007224E-1    7.881124568394215E-2
 8.730000000000000E9     9.787038936824026E-3    1.344079967938719E-1
 8.740000000000000E9     1.147843442455610E-1    8.028606622524645E-2
 8.750000000000000E9     1.348516683998381E-1   -4.115827115152325E-2
 8.760000000000000E9     4.601636627566313E-2   -1.037231816755483E-1
 8.770000000000000E9    -4.335874182394533E-2   -7.922524109621511E-2
 8.780000000000000E9    -8.062168920222437E-2    2.317264057080002E-3
 8.790000000000000E9    -3.429545464580791E-2    6.616942429211478E-2
 8.800000000000000E9     4.303304535524378E-2    6.615609332947686E-2
 8.810000000000000E9     7.931996906302929E-2   -5.252662756900439E-3
 8.820000000000000E9     2.866673164707481E-2   -6.371670478756036E-2
 8.830000000000000E9    -4.156513552648451E-2   -4.462922859381429E-2
 8.840000000000000E9    -7.629059541006937E-2    3.659086036227881E-2
 8.850000000000000E9    -1.958746476130448E-2    1.141410308607670E-1
 8.860000000000000E9     9.574553120019927E-2    1.072103482257642E-1
 8.870000000000000E9     1.576831715720005E-1   -2.194276499180297E-3
 8.880000000000000E9     9.176297159475293E-2   -1.017796986942453E-1
 8.890000000000000E9    -7.306763478289396E-3   -1.172644244954323E-1
 8.900000000000000E9    -7.374237758199292E-2   -4.936538157041678E-2
 8.910000000000000E9    -6.641095290861289E-2    4.112785066247514E-2
 8.920000000000000E9     1.386865422539855E-2    7.431698310461790E-2
 8.930000000000000E9     8.358771622048534E-2    1.911842348184199E-2
 8.940000000000000E9     6.588884661026573E-2   -6.666204023935918E-2
 8.950000000000000E9    -2.603973095768194E-2   -9.487533039329049E-2
 8.960000000000000E9    -1.156758520418768E-1   -3.509420858180008E-2
 8.970000000000000E9    -1.097574979814088E-1    9.091699346247745E-2
 8.980000000000000E9    -1.130266463705195E-2    1.641185990579699E-1
 8.990000000000000E9     1.101315429847655E-1    1.236186553824920E-1
 9.000000000000000E9     1.589136192415515E-1    1.978133856962422E-2
 9.010000000000000E9     1.331506182513423E-1   -7.471672615867932E-2
 9.020000000000000E9     4.136150863628044E-2   -1.158816318692959E-1
 9.030000000000000E9    -3.276950847312107E-2   -8.228854663599107E-2
 9.040000000000000E9    -4.212558849947270E-2   -1.683278946812027E-2
 9.050000000000000E9    -1.230075207542222E-2   -4.615386281268077E-3
 9.060000000000000E9    -5.561716854421474E-3   -3.400619014407311E-2
 9.070000000000000E9    -4.901616341084779E-2   -5.127919380025894E-2
 9.080000000000000E9    -1.152760262191418E-1   -3.518443157303932E-3
 9.090000000000000E9    -1.201531986273922E-1    1.078725256241246E-1
 9.100000000000000E9    -2.147605731007418E-2    2.067995141549995E-1
 9.110000000000000E9     1.377796369248419E-1    1.988139283785358E-1
 9.120000000000000E9     2.469823713227810E-1    7.352125309162226E-2
 9.130000000000000E9     2.477666227061813E-1   -1.042459864863007E-1
 9.140000000000000E9     1.190079938375608E-1   -2.352026836608333E-1
 9.150000000000000E9    -4.968166359364873E-2   -2.352789094141346E-1
 9.160000000000000E9    -1.711853283609624E-1   -1.247754912284021E-1
 9.170000000000000E9    -1.763653714527757E-1   -2.344403297431133E-4
 9.180000000000000E9    -1.242075744963420E-1    8.008365659384514E-2
 9.190000000000000E9    -6.478809912684878E-2    9.381321205111499E-2
 9.200000000000000E9    -3.801523662181844E-2    9.351702695023370E-2
 9.210000000000000E9    -2.399096853988189E-2    1.148577846984073E-1
 9.220000000000000E9     3.014849819414008E-2    1.603865299840356E-1
 9.230000000000000E9     1.365547655322683E-1    1.554751786003364E-1
 9.240000000000000E9     2.245441528042553E-1    6.336608326609243E-2
 9.250000000000000E9     2.467245024005117E-1   -8.589185328332438E-2
 9.260000000000000E9     1.476230611295139E-1   -2.312914945656166E-1
 9.270000000000000E9    -3.199301584436220E-2   -2.783641968560124E-1
 9.280000000000000E9    -1.968322907528690E-1   -1.765325701624859E-1
 9.290000000000000E9    -2.399702518231883E-1   -8.243696504005475E-3
 9.300000000000000E9    -1.751679878329244E-1    1.367487958292549E-1
 9.310000000000000E9    -4.239495380060975E-2    1.779248457291046E-1
 9.320000000000000E9     4.469523740153980E-2    1.303955930186304E-1
 9.330000000000000E9     5.571814702773257E-2    6.875247311021083E-2
 9.340000000000000E9     4.150662778009868E-2    6.700713674747159E-2
 9.350000000000000E9     7.252181266634676E-2    8.590024199389440E-2
 9.360000000000000E9     1.376192560060429E-1    7.163516155085520E-2
 9.370000000000000E9     1.960298511492414E-1   -1.535903834017946E-2
 9.380000000000000E9     1.644772797894885E-1   -1.535777796506847E-1
 9.390000000000000E9     4.058797367321251E-2   -2.459732792525023E-1
 9.400000000000000E9    -1.260007990650775E-1   -2.236335838885816E-1
 9.410000000000000E9    -2.330862500979129E-1   -9.799095875220176E-2
 9.420000000000000E9    -2.365634420683936E-1    6.669429838280609E-2
 9.430000000000000E9    -1.343474023558873E-1    1.910215607017567E-1
 9.440000000000000E9     2.587074594475083E-3    1.928808110569387E-1
 9.450000000000000E9     7.924294454208354E-2    1.260025533916655E-1
 9.460000000000000E9     8.440245826033657E-2    6.983797479501140E-2
 9.470000000000000E9     8.254377214373144E-2    5.394267177803851E-2
 9.480000000000000E9     1.010860997686173E-1    5.566627359906010E-2
 9.490000000000000E9     1.663607831448209E-1    2.136220297698453E-2
 9.500000000000000E9     1.913726508800224E-1   -8.947628167302192E-2
 9.510000000000000E9     1.146786602518448E-1   -2.224842839337212E-1
 9.520000000000000E9    -5.729093353574855E-2   -2.731464930158677E-1
 9.530000000000000E9    -2.144119834751963E-1   -1.891819377555339E-1
 9.540000000000000E9    -2.925527879643520E-1   -1.617543203848749E-2
 9.550000000000000E9    -2.283193620944615E-1    1.625899375559377E-1
 9.560000000000000E9    -8.711332863689569E-2    2.487705816154628E-1
 9.570000000000000E9     7.077299940634621E-2    2.248369814559926E-1
 9.580000000000000E9     1.381565588660321E-1    1.248968895848005E-1
 9.590000000000000E9     1.410544031996958E-1    3.135913644918539E-2
 9.600000000000000E9     1.033348495692168E-1   -4.618246100203787E-3
 9.610000000000000E9     9.875590109547003E-2   -9.530268112867769E-3
 9.620000000000000E9     1.232971424910665E-1   -3.885386440197617E-2
 9.630000000000000E9     1.184435382380384E-1   -1.300029966673618E-1
 9.640000000000000E9     1.992553959315510E-2   -2.059408261538105E-1
 9.650000000000000E9    -1.226430258155121E-1   -1.989899430743459E-1
 9.660000000000000E9    -2.340125524929941E-1   -8.853476922278564E-2
 9.670000000000000E9    -2.471956775608462E-1    7.638992798503495E-2
 9.680000000000000E9    -1.504326135275583E-1    2.192896865568338E-1
 9.690000000000000E9     1.647395534805902E-2    2.505747937790938E-1
 9.700000000000000E9     1.413739444606276E-1    1.676874083155167E-1
 9.710000000000000E9     1.680914868372350E-1    4.273820351016863E-2
 9.720000000000000E9     1.108482297129871E-1   -3.035566466314615E-2
 9.730000000000000E9     6.459145592440879E-2   -2.874976458389280E-2
 9.740000000000000E9     7.691307002208093E-2   -8.167920155971944E-3
 9.750000000000000E9     1.181102295829610E-1   -4.962147372137384E-2
 9.760000000000000E9     9.597106984171695E-2   -1.320501207734810E-1
 9.770000000000000E9    -1.860645613085880E-3   -2.124708279387294E-1
 9.780000000000000E9    -1.515239818424975E-1   -1.848143075449154E-1
 9.790000000000000E9    -2.550813013131326E-1   -5.729407882428819E-2
 9.800000000000000E9    -2.422569807936591E-1    1.127501146608905E-1
 9.810000000000000E9    -1.234274142128332E-1    2.383417105168880E-1
 9.820000000000000E9     3.910717439374805E-2    2.599567802615532E-1
 9.830000000000000E9     1.683086061020405E-1    1.684717181274343E-1
 9.840000000000000E9     1.938767881132237E-1    4.001071964057907E-2
 9.850000000000000E9     1.479282373007557E-1   -4.535630400163588E-2
 9.860000000000000E9     9.662971147752106E-2   -5.947395484271795E-2
 9.870000000000000E9     9.405201934846065E-2   -7.455078617615113E-2
 9.880000000000000E9     9.087952543642580E-2   -1.200104936068172E-1
 9.890000000000000E9     3.230392037247222E-2   -1.954456040665747E-1
 9.900000000000000E9    -1.062415309286813E-1   -2.154919412654989E-1
 9.910000000000000E9    -2.434862368099543E-1   -1.336904920384420E-1
 9.920000000000000E9    -3.004698305605720E-1    4.942358004643086E-2
 9.930000000000000E9    -2.181482648720891E-1    2.285099173789447E-1
 9.940000000000000E9    -3.161897515161818E-2    3.183704262909259E-1
 9.950000000000000E9     1.661354104361787E-1    2.635163869369891E-1
 9.960000000000000E9     2.613612595801563E-1    1.087626898154659E-1
 9.970000000000000E9     2.467354420552980E-1   -5.926123368221704E-2
 9.980000000000000E9     1.388625416725752E-1   -1.533947953546283E-1
 9.990000000000000E9     4.601253244248141E-2   -1.623177367238698E-1
 1.000000000000000E+10  -9.536564219499810E-3   -1.286035606575808E-1
 1.001000000000000E+10  -3.425243513520110E-2   -1.254838423889819E-1
 1.002000000000000E+10  -7.810310474037351E-2   -1.243290786579273E-1
 1.003000000000000E+10  -1.552799488414149E-1   -1.031680983615205E-1
 1.004000000000000E+10  -2.345720564872054E-1   -1.577083195508765E-3
 1.005000000000000E+10  -2.167345002643578E-1    1.462413143957404E-1
 1.006000000000000E+10  -9.025423927048323E-2    2.767363446700553E-1
 1.007000000000000E+10   9.918421238681070E-2    2.793211527318097E-1
 1.008000000000000E+10   2.534415814729323E-1    1.640870699572055E-1
 1.009000000000000E+10   2.834621644587804E-1   -3.036566052824468E-2
 1.010000000000000E+10   1.778550610719943E-1   -1.743218201724591E-1
 1.011000000000000E+10   3.225634629260588E-2   -2.110267616937996E-1
 1.012000000000000E+10  -7.004828696204059E-2   -1.491007273735480E-1
 1.013000000000000E+10  -9.836094987522818E-2   -6.628968433153609E-2
 1.014000000000000E+10  -6.622751525523950E-2   -1.617438131313431E-2
 1.015000000000000E+10  -4.791044296376065E-2   -3.813991929610142E-2
 1.016000000000000E+10  -1.027609007460215E-1   -4.307419418373415E-2
 1.017000000000000E+10  -1.566232111450417E-1    2.526433403420989E-2
 1.018000000000000E+10  -1.368254021449359E-1    1.496324711647747E-1
 1.019000000000000E+10  -1.398420587716308E-2    2.147669526591690E-1
 1.020000000000000E+10   1.347188019430783E-1    1.973920997654503E-1
 1.021000000000000E+10   2.282546499995071E-1    6.753548490338929E-2
 1.022000000000000E+10   2.119089981638005E-1   -8.344675127771758E-2
 1.023000000000000E+10   1.040887084368233E-1   -1.838081364838043E-1
 1.024000000000000E+10  -3.413153191368497E-2   -1.743315741766115E-1
 1.025000000000000E+10  -1.156867894722086E-1   -9.197633844398607E-2
 1.026000000000000E+10  -8.958085803559282E-2    1.303376759627067E-2
 1.027000000000000E+10  -1.082718907305042E-2    1.999625423529966E-2
 1.028000000000000E+10  -8.017673808226584E-3   -3.683727499231366E-2
 1.029000000000000E+10  -7.355515359905405E-2   -5.459299150339919E-2
 1.030000000000000E+10  -1.395037545700960E-1    2.057038613012610E-2
 1.031000000000000E+10  -1.150943275412745E-1    1.319796113146010E-1
 1.032000000000000E+10   1.109565721268595E-2    2.156923786092808E-1
 1.033000000000000E+10   1.662970903457535E-1    1.548189537249024E-1
 1.034000000000000E+10   2.349292767834157E-1    9.898848183662269E-3
 1.035000000000000E+10   1.820627917290079E-1   -1.366809311573136E-1
 1.036000000000000E+10   4.448847563719096E-2   -2.031626095057884E-1
 1.037000000000000E+10  -8.407244851199119E-2   -1.744384415971481E-1
 1.038000000000000E+10  -1.376236925117940E-1   -5.358094402953319E-2
 1.039000000000000E+10  -9.438738983436835E-2    2.492457478331360E-2
 1.040000000000000E+10  -3.052181069037800E-2    2.726156498524144E-2
 1.041000000000000E+10  -2.450450978755694E-2   -1.006954302805843E-2
 1.042000000000000E+10  -7.693349292309166E-2   -8.259265011387885E-3
 1.043000000000000E+10  -1.188662022163725E-1    4.640558042295242E-2
 1.044000000000000E+10  -7.705634277431184E-2    1.646840577689895E-1
 1.045000000000000E+10   6.219886437665934E-2    1.967984824434538E-1
 1.046000000000000E+10   1.950950807978787E-1    1.245625993649363E-1
 1.047000000000000E+10   2.362755376913635E-1   -4.512307031823280E-2
 1.048000000000000E+10   1.479220244213816E-1   -1.806325975506782E-1
 1.049000000000000E+10  -2.041430527483949E-2   -2.155348306647377E-1
 1.050000000000000E+10  -1.427228101613349E-1   -1.200750768139170E-1
 1.051000000000000E+10  -1.437500080766753E-1    1.162390788752783E-3
 1.052000000000000E+10  -7.219990304060625E-2    7.602355874173394E-2
 1.053000000000000E+10  -2.257029425622064E-3    5.652708682669275E-2
 1.054000000000000E+10   1.532752679662773E-2    5.459152189808901E-3
 1.055000000000000E+10  -4.162240743471534E-2   -7.340360732967427E-3
 1.056000000000000E+10  -8.256275125374468E-2    5.647950527433167E-2
 1.057000000000000E+10  -2.591223250089553E-2    1.367508021785256E-1
 1.058000000000000E+10   8.986042512179102E-2    1.526876620912842E-1
 1.059000000000000E+10   1.943079462551721E-1    6.176046615535408E-2
 1.060000000000000E+10   2.008352921808204E-1   -7.914364362003178E-2
 1.061000000000000E+10   9.603197304394209E-2   -1.937465216561808E-1
 1.062000000000000E+10  -5.902040674756096E-2   -1.877290729686041E-1
 1.063000000000000E+10  -1.521474480582766E-1   -9.044552901134680E-2
 1.064000000000000E+10  -1.419961811550801E-1    3.542040249436101E-2
 1.065000000000000E+10  -5.924207633945375E-2    9.470398213832434E-2
 1.066000000000000E+10   1.873453511624988E-2    7.607709090932405E-2
 1.067000000000000E+10   2.614042305320684E-2    1.181014558406335E-2
 1.068000000000000E+10  -2.228875719048113E-2    1.571271581886121E-2
 1.069000000000000E+10  -4.043277349548314E-2    7.275483018870166E-2
 1.070000000000000E+10   2.127939415279098E-2    1.405277672542253E-1
 1.071000000000000E+10   1.494827349587424E-1    1.187701727449757E-1
 1.072000000000000E+10   2.286031287156289E-1    2.567293288710169E-3
 1.073000000000000E+10   1.922653036074992E-1   -1.577272791395307E-1
 1.074000000000000E+10   4.863848221705000E-2   -2.382140439853755E-1
 1.075000000000000E+10  -1.089760583455723E-1   -2.010538185687210E-1
 1.076000000000000E+10  -1.970601242140694E-1   -6.627127104167194E-2
 1.077000000000000E+10  -1.672290214571042E-1    6.559029227077535E-2
 1.078000000000000E+10  -5.978916288616833E-2    1.425906806187222E-1
 1.079000000000000E+10   4.730446757239784E-2    1.106051314102290E-1
 1.080000000000000E+10   8.247534234970219E-2    4.167844622896735E-2
 1.081000000000000E+10   4.093060071381387E-2   -1.083282814458277E-2
 1.082000000000000E+10   1.311370967685729E-2    1.930291167531195E-2
 1.083000000000000E+10   4.254392075837825E-2    5.136182742814154E-2
 1.084000000000000E+10   1.146171306381958E-1    2.879836098482609E-2
 1.085000000000000E+10   1.417285001974315E-1   -7.315266117004435E-2
 1.086000000000000E+10   7.545128888551700E-2   -1.610740925284695E-1
 1.087000000000000E+10  -5.561522340030086E-2   -1.866189702367025E-1
 1.088000000000000E+10  -1.732265586345603E-1   -9.902495390188809E-2
 1.089000000000000E+10  -1.963770183077685E-1    4.818142558921079E-2
 1.090000000000000E+10  -1.019803435264702E-1    1.759269440762668E-1
 1.091000000000000E+10   5.112955605155952E-2    1.802517580289155E-1
 1.092000000000000E+10   1.579018115022795E-1    8.769355051154031E-2
 1.093000000000000E+10   1.432760291556871E-1   -3.577093263603685E-2
 1.094000000000000E+10   6.151175023635638E-2   -8.881048442992416E-2
 1.095000000000000E+10  -1.904916466485195E-2   -5.738587477250445E-2
 1.096000000000000E+10  -1.409937036632919E-2    7.807308401640723E-3
 1.097000000000000E+10   3.784163138069745E-2    2.274282183631285E-2
 1.098000000000000E+10   8.045895670008904E-2   -2.899617455410124E-2
 1.099000000000000E+10   4.841343042553300E-2   -9.910133908976783E-2
 1.100000000000000E+10  -3.769514802631074E-2   -1.172815695352578E-1
 1.101000000000000E+10  -1.228854182052350E-1   -5.026891599959170E-2
 1.102000000000000E+10  -1.242567494500340E-1    6.347828888208916E-2
 1.103000000000000E+10  -2.746617831032402E-2    1.373591647133017E-1
 1.104000000000000E+10   8.412077561731626E-2    1.095254138475030E-1
 1.105000000000000E+10   1.367897483848454E-1    2.147320163222789E-3
 1.106000000000000E+10   7.793175578370751E-2   -8.576785232060188E-2
 1.107000000000000E+10  -2.123908431844514E-2   -9.308501476225509E-2
 1.108000000000000E+10  -8.180637926153143E-2   -1.381466621714285E-2
 1.109000000000000E+10  -4.692685970833317E-2    7.199194393820134E-2
 1.110000000000000E+10   4.848227476304851E-2    9.311420980284472E-2
 1.111000000000000E+10   1.211039175315795E-1    2.251811219289775E-2
 1.112000000000000E+10   1.112897006157025E-1   -7.532517488910238E-2
 1.113000000000000E+10   9.068260556396293E-3   -1.321664774061251E-1
 1.114000000000000E+10  -8.770373616831602E-2   -7.072401345850510E-2
 1.115000000000000E+10  -1.052719519669523E-1    3.617780998785331E-2
 1.116000000000000E+10  -2.357166359833742E-2    9.872142555266272E-2
 1.117000000000000E+10   6.740782203750449E-2    6.853487244841322E-2
 1.118000000000000E+10   9.682725182547323E-2   -5.554272019446947E-3
 1.119000000000000E+10   4.539751864995420E-2   -7.544307482711740E-2
 1.120000000000000E+10  -3.396175498990921E-2   -6.253661439425771E-2
 1.121000000000000E+10  -7.508807946372997E-2    4.797596123769197E-3
 1.122000000000000E+10  -3.413267130605515E-2    8.908151700570724E-2
 1.123000000000000E+10   5.843369565014467E-2    8.968884958693336E-2
 1.124000000000000E+10   1.287880564125706E-1    1.540087743710250E-2
 1.125000000000000E+10   9.519549595801804E-2   -8.982011259159219E-2
 1.126000000000000E+10  -6.650760737168646E-3   -1.210769605257487E-1
 1.127000000000000E+10  -1.039919983407545E-1   -6.101944358927089E-2
 1.128000000000000E+10  -1.040810899039458E-1    5.902634780209621E-2
 1.129000000000000E+10  -1.565975926539455E-2    1.322021109181440E-1
 1.130000000000000E+10   1.016608301203000E-1    8.931421276290140E-2
 1.131000000000000E+10   1.311815908475085E-1   -1.626875609595518E-2
 1.132000000000000E+10   6.202925920464805E-2   -9.288536775350496E-2
 1.133000000000000E+10  -3.998375470626718E-2   -7.205659348086037E-2
 1.134000000000000E+10  -7.422470272018981E-2    1.382292934331894E-2
 1.135000000000000E+10  -2.496152981442090E-2    8.745010630156974E-2
 1.136000000000000E+10   6.699952051558671E-2    8.493956302000058E-2
 1.137000000000000E+10   1.189664189968774E-1    5.740611721727260E-3
 1.138000000000000E+10   8.926896435217289E-2   -8.019211514246340E-2
 1.139000000000000E+10  -4.468414736370179E-3   -1.070149477624851E-1
 1.140000000000000E+10  -8.586916602996880E-2   -3.604337937353710E-2
 1.141000000000000E+10  -6.947806034753919E-2    5.406021701167166E-2
 1.142000000000000E+10   1.269736032306493E-2    1.025363930038455E-1
 1.143000000000000E+10   9.857062205164865E-2    6.135292085812236E-2
 1.144000000000000E+10   1.164658705680074E-1   -3.684864340962130E-2
 1.145000000000000E+10   5.273356886335541E-2   -1.162072340613287E-1
 1.146000000000000E+10  -7.023323123561906E-2   -9.085464806412731E-2
 1.147000000000000E+10  -1.141767013670377E-1    2.428465896793267E-2
 1.148000000000000E+10  -3.343960855131936E-2    1.196553308308995E-1
 1.149000000000000E+10   8.851007846952598E-2    1.000814705534413E-1
 1.150000000000000E+10   1.294111639796716E-1   -1.403981072167585E-4
 1.151000000000000E+10   8.164472999508408E-2   -9.168314849962764E-2
 1.152000000000000E+10  -8.455322829669074E-3   -9.533422311076528E-2
 1.153000000000000E+10  -7.429942653232077E-2   -2.933099746544460E-2
 1.154000000000000E+10  -6.089057645132986E-2    5.516890605030054E-2
 1.155000000000000E+10   7.362742534283786E-3    8.414285822477276E-2
 1.156000000000000E+10   9.011183803812481E-2    5.285246016707636E-2
 1.157000000000000E+10   9.949067038358909E-2   -3.915698992401186E-2
 1.158000000000000E+10   2.453819443578732E-2   -1.034929626789835E-1
 1.159000000000000E+10  -7.841543181869841E-2   -6.542453553047929E-2
 1.160000000000000E+10  -1.005733748093395E-1    4.814043614387833E-2
 1.161000000000000E+10  -2.359770193386944E-2    1.256315943736902E-1
 1.162000000000000E+10   9.083887518315577E-2    1.103861835074546E-1
 1.163000000000000E+10   1.512368853168397E-1    8.052699972656804E-3
 1.164000000000000E+10   9.946743636732885E-2   -9.440753635153129E-2
 1.165000000000000E+10  -9.427283649740922E-4   -1.099399021153682E-1
 1.166000000000000E+10  -6.740989463053339E-2   -4.021809439074567E-2
 1.167000000000000E+10  -5.542978294436068E-2    4.347648844479824E-2
 1.168000000000000E+10   2.237959741335998E-2    6.771440689898282E-2
 1.169000000000000E+10   7.704336654646388E-2    8.856480653866716E-3
 1.170000000000000E+10   6.007370081166143E-2   -7.145238831007610E-2
 1.171000000000000E+10  -3.127217546595860E-2   -9.129972950225848E-2
 1.172000000000000E+10  -1.074726869165172E-1   -2.613287968452501E-2
 1.173000000000000E+10  -1.050526419434884E-1    8.876424150317672E-2
 1.174000000000000E+10  -7.242102182791389E-3    1.638788032104841E-1
 1.175000000000000E+10   1.132363164040656E-1    1.309759397651723E-1
 1.176000000000000E+10   1.769628800078403E-1    1.646919827810370E-2
 1.177000000000000E+10   1.339450085070649E-1   -9.809480906254771E-2
 1.178000000000000E+10   2.130995755315174E-2   -1.385652993802801E-1
 1.179000000000000E+10  -7.374306376967373E-2   -8.301284176815521E-2
 1.180000000000000E+10  -8.010993275364406E-2    1.265222189126084E-2
 1.181000000000000E+10  -1.822986496864379E-2    5.339231411675258E-2
 1.182000000000000E+10   2.526639907521654E-2    2.318358497108593E-2
 1.183000000000000E+10   1.680555462102781E-2   -2.068108688389303E-2
 1.184000000000000E+10  -3.426253312283557E-2   -2.123190338601778E-2
 1.185000000000000E+10  -7.258756918377472E-2    4.294936913636684E-2
 1.186000000000000E+10  -3.704908941409155E-2    1.295931929337811E-1
 1.187000000000000E+10   7.887656640324529E-2    1.568679093474074E-1
 1.188000000000000E+10   1.836649926130363E-1    7.951249095077227E-2
 1.189000000000000E+10   2.073012595410204E-1   -5.883879621643644E-2
 1.190000000000000E+10   1.259072107096300E-1   -1.856735844149044E-1
 1.191000000000000E+10  -2.666981041159559E-2   -1.998111216760513E-1
 1.192000000000000E+10  -1.406329519179426E-1   -1.018448736674354E-1
 1.193000000000000E+10  -1.435440212960321E-1    2.474057347622360E-2
 1.194000000000000E+10  -6.551540867168525E-2    1.011535034136467E-1
 1.195000000000000E+10   1.926839884476586E-2    8.872094540951472E-2
 1.196000000000000E+10   5.025454960426805E-2    3.019902251086783E-2
 1.197000000000000E+10   2.158068214785780E-2   -7.262738084072653E-3
 1.198000000000000E+10  -1.432702678816708E-2    2.430918433820318E-2
 1.199000000000000E+10   1.377412535400306E-2    7.355887994325749E-2
 1.200000000000000E+10   7.914791570750307E-2    7.609028719204393E-2
 1.201000000000000E+10   1.473938434544379E-1    9.180026146924675E-3
 1.202000000000000E+10   1.374225462577620E-1   -1.038751681885964E-1
 1.203000000000000E+10   3.245108204674584E-2   -1.844793689456597E-1
 1.204000000000000E+10  -1.067457389679972E-1   -1.574002292702758E-1
 1.205000000000000E+10  -1.799869640078574E-1   -2.684283922012299E-2
 1.206000000000000E+10  -1.445338382691464E-1    1.066728167735062E-1
 1.207000000000000E+10  -2.364302060683225E-2    1.601896958287715E-1
 1.208000000000000E+10   8.804961465438027E-2    1.118484361569578E-1
 1.209000000000000E+10   1.121323918549464E-1    7.465537631468847E-3
 1.210000000000000E+10   5.112478397210678E-2   -5.658325786363257E-2
 1.211000000000000E+10  -2.029280689479229E-2   -3.929009513723613E-2
 1.212000000000000E+10  -3.477228885777247E-2    3.904446717504895E-2
 1.213000000000000E+10   3.527434365577328E-2    7.273855532168043E-2
 1.214000000000000E+10   9.947982396221024E-2    1.649217191258135E-2
 1.215000000000000E+10   8.852983963467910E-2   -7.868740257211974E-2
 1.216000000000000E+10  -1.645186794056715E-3   -1.190941495487450E-1
 1.217000000000000E+10  -9.225314311418027E-2   -8.321449380344284E-2
 1.218000000000000E+10  -1.282567071055407E-1    1.728495438438159E-2
 1.219000000000000E+10  -7.900314498278196E-2    1.183265850293306E-1
 1.220000000000000E+10   2.691585851020655E-2    1.445797936615968E-1
 1.221000000000000E+10   1.259547802890029E-1    7.362259357467558E-2
 1.222000000000000E+10   1.258234984272889E-1   -3.845939965317662E-2
 1.223000000000000E+10   4.120949076385218E-2   -9.912965694559507E-2
 1.224000000000000E+10  -4.781636249208967E-2   -5.976966324566294E-2
 1.225000000000000E+10  -4.931323072958989E-2    2.966136243755986E-2
 1.226000000000000E+10   2.365540257368742E-2    6.727328110616972E-2
 1.227000000000000E+10   8.962252838544572E-2    8.739299624810482E-3
 1.228000000000000E+10   7.314919265781758E-2   -8.478437060826986E-2
 1.229000000000000E+10  -9.310254364668110E-3   -1.207651447662847E-1
 1.230000000000000E+10  -1.028441566476395E-1   -8.018992414879673E-2
 1.231000000000000E+10  -1.360037807200947E-1    2.122091374064800E-2
 1.232000000000000E+10  -8.083231919580998E-2    1.221449512294456E-1
 1.233000000000000E+10   3.549046371635899E-2    1.413605276293588E-1
 1.234000000000000E+10   1.143321395180791E-1    6.478732346621234E-2
 1.235000000000000E+10   1.145902234352379E-1   -4.520956944748599E-2
 1.236000000000000E+10   3.298012665871689E-2   -9.649518976538260E-2
 1.237000000000000E+10  -4.392292511593813E-2   -6.163806581191479E-2
 1.238000000000000E+10  -5.542481362003598E-2    1.433947622234799E-2
 1.239000000000000E+10   1.061472088135621E-2    4.438610298673908E-2
 1.240000000000000E+10   5.189098171588486E-2    4.612485602931318E-3
 1.241000000000000E+10   5.011174182780284E-2   -6.606574392950587E-2
 1.242000000000000E+10  -3.025109595525328E-2   -1.036400864098421E-1
 1.243000000000000E+10  -1.144099479370588E-1   -5.938588741511405E-2
 1.244000000000000E+10  -1.429550739589860E-1    6.052420247482425E-2
 1.245000000000000E+10  -5.882021391674249E-2    1.477220357133650E-1
 1.246000000000000E+10   6.067662240034766E-2    1.443178081856433E-1
 1.247000000000000E+10   1.372475805180670E-1    5.045097139718883E-2
 1.248000000000000E+10   1.192352043024647E-1   -6.283236701297990E-2
 1.249000000000000E+10   2.352052145451426E-2   -1.234671084738155E-1
 1.250000000000000E+10  -6.349922740699555E-2   -6.647986253749713E-2
