#  HZ   S   RI   R     50.00 
! Rohde & Schwarz Vector Network Analyzer 
! Rohde-Schwarz,ZNA43-4Port,1332450044101932,2.92
! Created: UTC 6/9/2026, 6:47:13 AM
! freq[Hz]                re:S11                  im:S11
 8.000000000000000E9    -1.444229977294346E-1   -1.899363777605846E-1
 8.010000000000000E9    -2.172711741579451E-1   -1.021839883248153E-1
 8.020000000000000E9    -2.414693372479236E-1    3.905640329944449E-2
 8.030000000000000E9    -1.747391793458829E-1    1.587636885631759E-1
 8.040000000000000E9    -6.295166271593915E-2    2.113967491528320E-1
 8.050000000000000E9     5.073893604402833E-2    2.148500585639101E-1
 8.060000000000000E9     1.201661931503729E-1    1.707724676297277E-1
 8.070000000000000E9     1.865426758158375E-1    1.129202113607772E-1
 8.080000000000000E9     2.401206583400854E-1    5.940197224779803E-3
 8.090000000000000E9     2.227625127444952E-1   -1.094283466655411E-1
 8.100000000000000E9     1.353966443150803E-1   -2.132182586043127E-1
 8.110000000000000E9    -1.716706686452676E-3   -2.462974530041289E-1
 8.120000000000000E9    -1.142029858826733E-1   -1.971602743947473E-1
 8.130000000000000E9    -1.906593189197200E-1   -1.014147207067770E-1
 8.140000000000000E9    -2.142544944032068E-1   -4.049236353702846E-3
 8.150000000000000E9    -1.980121570776218E-1    9.140945154690931E-2
 8.160000000000000E9    -1.238134210322992E-1    2.108918668770739E-1
 8.170000000000000E9     3.449112430785908E-3    2.689510973676911E-1
 8.180000000000000E9     1.505238921304316E-1    2.248358498158028E-1
 8.190000000000000E9     2.386005076772216E-1    1.080481053094840E-1
 8.200000000000000E9     2.463535318262653E-1   -5.064603785528709E-3
 8.210000000000000E9     2.037552802919732E-1   -1.235884851016194E-1
 8.220000000000000E9     1.278003814468238E-1   -1.996791602728686E-1
 8.230000000000000E9     2.340932636896730E-2   -2.329006374165837E-1
 8.240000000000000E9    -1.062889681998039E-1   -2.047944741298865E-1
 8.250000000000000E9    -2.115716532055249E-1   -1.081143319546056E-1
 8.260000000000000E9    -2.296924131412744E-1    2.705482912364683E-2
 8.270000000000000E9    -1.650966992713762E-1    1.606485234810322E-1
 8.280000000000000E9    -5.397897728404460E-2    2.060910033027909E-1
 8.290000000000000E9     4.920246055276783E-2    1.890023139811468E-1
 8.300000000000000E9     1.395174991076105E-1    1.559746916811979E-1
 8.310000000000000E9     1.933332987653028E-1    8.019564746160297E-2
 8.320000000000000E9     2.094220928440673E-1   -2.638301919876094E-2
 8.330000000000000E9     1.697333935635623E-1   -1.326462998462199E-1
 8.340000000000000E9     6.776710511722746E-2   -1.900232902171522E-1
 8.350000000000000E9    -4.969032954328240E-2   -1.721800849702873E-1
 8.360000000000000E9    -1.169754176040587E-1   -1.011887135103542E-1
 8.370000000000000E9    -1.222756758876676E-1   -1.428197395697588E-2
 8.380000000000000E9    -1.152099534069253E-1    4.938858755911909E-2
 8.390000000000000E9    -8.786451134323194E-2    9.552258162837031E-2
 8.400000000000000E9    -2.495424814696703E-2    1.416045070438782E-1
 8.410000000000000E9     6.880589147188579E-2    1.463950531795769E-1
 8.420000000000000E9     1.339665445720984E-1    9.991577272764388E-2
 8.430000000000000E9     1.643428996634572E-1    4.000590670095897E-3
 8.440000000000000E9     1.285716164208167E-1   -6.724056895365445E-2
 8.450000000000000E9     7.510304484928919E-2   -7.579939167384867E-2
 8.460000000000000E9     3.654428501155835E-2   -9.342540038335241E-2
 8.470000000000000E9     3.744215340981997E-3   -1.097959755992317E-1
 8.480000000000000E9    -5.749419660815100E-2   -9.164426148347762E-2
 8.490000000000000E9    -9.719584408281577E-2   -2.948852194791462E-2
 8.500000000000000E9    -9.144235505293515E-2    3.632679969351419E-2
 8.510000000000000E9    -3.901624779298556E-2    8.304420188384265E-2
 8.520000000000000E9     1.774659688499565E-2    8.937748607267575E-2
 8.530000000000000E9     3.762761892612954E-2    5.900374716176603E-2
 8.540000000000000E9     5.198242984372417E-2    3.529444198543651E-2
 8.550000000000000E9     7.989380326585120E-2    3.053660131348322E-2
 8.560000000000000E9     1.006920922513184E-1    2.042780019752788E-3
 8.570000000000000E9     7.974130005587515E-2   -6.002724786658294E-2
 8.580000000000000E9     2.535054220840338E-2   -8.097863076614786E-2
 8.590000000000000E9    -2.805765448605846E-2   -5.493032309122751E-2
 8.600000000000000E9    -3.880796791524002E-2   -1.280276243986477E-2
 8.610000000000000E9    -1.851107144123706E-2    3.958546871220144E-3
 8.620000000000000E9    -7.462189014881476E-3    1.838038195390630E-2
 8.630000000000000E9    -6.415211840699100E-3    3.869019811092875E-2
 8.640000000000000E9     9.529807059766379E-3    5.064776487706806E-2
 8.650000000000000E9     5.030794555803948E-2    5.222945764541327E-2
 8.660000000000000E9     9.058033520716229E-2    1.045194459381422E-2
 8.670000000000000E9     6.563699397549809E-2   -4.950182464523160E-2
 8.680000000000000E9     8.871831615015605E-3   -6.513774044014398E-2
 8.690000000000000E9    -1.293795468906536E-2   -3.374988726547607E-2
 8.700000000000000E9    -4.630215584594199E-3   -2.165162125258139E-3
 8.710000000000000E9    -4.295900329435600E-3   -1.248446539696831E-2
 8.720000000000000E9    -1.674095543738408E-2   -8.715208695139576E-3
 8.730000000000000E9    -1.544524547903280E-2    2.275507252372648E-2
 8.740000000000000E9     8.143562643749824E-3    4.435398614308929E-2
 8.750000000000000E9     5.171771284987917E-2    2.789092751841391E-2
 8.760000000000000E9     6.436931665302430E-2   -9.648087492529989E-3
 8.770000000000000E9     3.934964424169930E-2   -3.505078429638154E-2
 8.780000000000000E9    -7.527452064513999E-3   -3.777899298689957E-2
 8.790000000000000E9    -1.895239675533831E-2   -9.643608337509116E-3
 8.800000000000000E9    -7.908156724531656E-3    3.347438058117087E-3
 8.810000000000000E9    -2.780033563379480E-3    5.108985017207386E-3
 8.820000000000000E9    -2.093994275045623E-2    5.217165360732644E-3
 8.830000000000000E9    -1.250573590605218E-2    4.591249448645622E-2
 8.840000000000000E9     2.893230683981257E-2    6.548793562611188E-2
 8.850000000000000E9     5.770952792414987E-2    2.895346957451258E-2
 8.860000000000000E9     5.540944212501899E-2   -9.116636735748283E-3
 8.870000000000000E9     3.851526947883641E-2   -2.582153687653227E-2
 8.880000000000000E9     1.601941805533269E-2   -1.173092999166146E-2
 8.890000000000000E9     2.244301567260765E-2   -5.842880367048072E-3
 8.900000000000000E9     3.750680035992553E-2   -2.178502063130972E-2
 8.910000000000000E9     2.629023058898240E-2   -3.857050817880567E-2
 8.920000000000000E9    -1.512149270310764E-2   -4.207686679135296E-2
 8.930000000000000E9    -2.846183436793215E-2   -1.591728658363437E-2
 8.940000000000000E9    -1.086645112938419E-2    6.159670151019365E-3
 8.950000000000000E9    -3.031142289799419E-3    7.043073190088589E-3
 8.960000000000000E9    -2.505301436024933E-2    1.939420152385970E-3
 8.970000000000000E9    -4.150255857166466E-2    3.779009319376848E-2
 8.980000000000000E9    -4.560895872056389E-3    8.856284049845049E-2
 8.990000000000000E9     4.789934460381479E-2    7.976301161429683E-2
 9.000000000000000E9     8.742482108860672E-2    3.131224113546691E-2
 9.010000000000000E9     9.148913479371307E-2   -5.379330824717628E-3
 9.020000000000000E9     8.017666305601077E-2   -3.928880045176510E-2
 9.030000000000000E9     4.845224893223234E-2   -7.162409801874683E-2
 9.040000000000000E9     1.671309327873862E-2   -8.284546693584627E-2
 9.050000000000000E9    -2.666984336870532E-2   -9.867333536718137E-2
 9.060000000000000E9    -1.076547585913850E-1   -7.084485222315880E-2
 9.070000000000000E9    -1.358188705827729E-1    1.552531118617535E-2
 9.080000000000000E9    -9.248019304832038E-2    1.102005707756146E-1
 9.090000000000000E9    -1.006811332821573E-2    1.505642535862173E-1
 9.100000000000000E9     6.599527725731844E-2    1.303939367674530E-1
 9.110000000000000E9     1.178182581953309E-1    8.448818226172113E-2
 9.120000000000000E9     1.520177354693334E-1    3.468844363255072E-2
 9.130000000000000E9     1.626423913520293E-1   -3.543951336322731E-2
 9.140000000000000E9     1.280791744663100E-1   -1.381073694550541E-1
 9.150000000000000E9     2.979532753112580E-2   -1.919569838644410E-1
 9.160000000000000E9    -8.480072997768681E-2   -1.622128032998751E-1
 9.170000000000000E9    -1.732950860404666E-1   -8.479097596352801E-2
 9.180000000000000E9    -1.880813551431975E-1    2.619640164598196E-2
 9.190000000000000E9    -1.360251314045731E-1    1.155964374384170E-1
 9.200000000000000E9    -6.662892011973408E-2    1.571822106382261E-1
 9.210000000000000E9     5.045470065040151E-3    1.786530481142157E-1
 9.220000000000000E9     9.997279873642997E-2    1.771206345536665E-1
 9.230000000000000E9     2.019754392246517E-1    1.051237347206997E-1
 9.240000000000000E9     2.210868352570015E-1   -2.397100018656434E-2
 9.250000000000000E9     1.625226519414369E-1   -1.380131955266318E-1
 9.260000000000000E9     5.355391201619095E-2   -1.825184597732343E-1
 9.270000000000000E9    -3.490625711522415E-2   -1.587836038283479E-1
 9.280000000000000E9    -9.498617223873204E-2   -1.194808230000015E-1
 9.290000000000000E9    -1.399816844519843E-1   -6.403778064609980E-2
 9.300000000000000E9    -1.689222557457264E-1    2.443713260043884E-2
 9.310000000000000E9    -1.396061016139205E-1    1.135029185415948E-1
 9.320000000000000E9    -6.697139296735571E-2    1.761393626869583E-1
 9.330000000000000E9     5.113291521377650E-2    1.943828888417553E-1
 9.340000000000000E9     1.400357815584474E-1    1.244184841573282E-1
 9.350000000000000E9     1.578737270002912E-1    3.389658562501618E-2
 9.360000000000000E9     1.446764480088490E-1   -1.479033087850821E-2
 9.370000000000000E9     1.404807571659044E-1   -6.673969298728218E-2
 9.380000000000000E9     9.353342289012258E-2   -1.421670700211211E-1
 9.390000000000000E9    -1.149525711623875E-3   -1.863893416138895E-1
 9.400000000000000E9    -9.841675707670149E-2   -1.582292871363951E-1
 9.410000000000000E9    -1.641451523202763E-1   -6.991045736930310E-2
 9.420000000000000E9    -1.653742231393730E-1    2.020579487714343E-2
 9.430000000000000E9    -1.316165130102066E-1    9.780954015141224E-2
 9.440000000000000E9    -7.179693261946188E-2    1.411821159973081E-1
 9.450000000000000E9    -1.965886678419601E-2    1.668147898942589E-1
 9.460000000000000E9     6.912997028646284E-2    1.777149576425514E-1
 9.470000000000000E9     1.653849100870200E-1    1.278889633583176E-1
 9.480000000000000E9     2.177757280640595E-1    2.161126213752026E-2
 9.490000000000000E9     1.884637529430337E-1   -1.014421351788861E-1
 9.500000000000000E9     9.325721086092058E-2   -1.726906797980522E-1
 9.510000000000000E9     3.313025130233066E-3   -1.748557807167314E-1
 9.520000000000000E9    -6.809477800947984E-2   -1.642481451355247E-1
 9.530000000000000E9    -1.407081699037722E-1   -1.247204775027484E-1
 9.540000000000000E9    -2.010796521669113E-1   -4.463684925345342E-2
 9.550000000000000E9    -2.025047182487570E-1    8.034430303750614E-2
 9.560000000000000E9    -1.326769125987477E-1    1.804388714942907E-1
 9.570000000000000E9    -1.298728606666703E-2    2.247048346367714E-1
 9.580000000000000E9     9.610467974644465E-2    1.858957450576394E-1
 9.590000000000000E9     1.552288107185123E-1    1.072251461392034E-1
 9.600000000000000E9     1.739757092723502E-1    2.418110336743371E-2
 9.610000000000000E9     1.736993712957686E-1   -4.772141978164555E-2
 9.620000000000000E9     1.329198602033191E-1   -1.230304960353133E-1
 9.630000000000000E9     4.953873271036356E-2   -1.913310491715439E-1
 9.640000000000000E9    -6.764691309094147E-2   -1.807325595463473E-1
 9.650000000000000E9    -1.611298737371970E-1   -1.093017810606157E-1
 9.660000000000000E9    -1.701757765498416E-1    1.585194864524255E-3
 9.670000000000000E9    -1.348788408801981E-1    6.578536023832424E-2
 9.680000000000000E9    -1.023495375749962E-1    1.113305785747978E-1
 9.690000000000000E9    -4.994038400900230E-2    1.539906100352268E-1
 9.700000000000000E9     2.496993464391228E-2    1.734197338616664E-1
 9.710000000000000E9     1.061372665749814E-1    1.481252801031643E-1
 9.720000000000000E9     1.765026734884787E-1    7.062359035222343E-2
 9.730000000000000E9     1.824170144294785E-1   -2.929027007516700E-2
 9.740000000000000E9     1.290894960896691E-1   -1.103028296165792E-1
 9.750000000000000E9     6.184042878466816E-2   -1.334992212310109E-1
 9.760000000000000E9     7.453009451386869E-3   -1.381445836385992E-1
 9.770000000000000E9    -5.242964229315653E-2   -1.438280415697345E-1
 9.780000000000000E9    -1.319802166910039E-1   -1.145752364037338E-1
 9.790000000000000E9    -1.947286511714150E-1   -2.581744718442534E-2
 9.800000000000000E9    -1.758329304265725E-1    8.719915255389617E-2
 9.810000000000000E9    -1.021312707272037E-1    1.637828967064595E-1
 9.820000000000000E9    -2.136371125658925E-3    1.892421344629305E-1
 9.830000000000000E9     7.272787372270920E-2    1.688059883218118E-1
 9.840000000000000E9     1.396231392425596E-1    1.255448538052971E-1
 9.850000000000000E9     1.927647552934331E-1    4.655422312734929E-2
 9.860000000000000E9     2.043858316073311E-1   -4.470946479371606E-2
 9.870000000000000E9     1.700158469335979E-1   -1.584506348642312E-1
 9.880000000000000E9     4.968639555643805E-2   -2.362857146606320E-1
 9.890000000000000E9    -9.274087539742920E-2   -2.158918990477934E-1
 9.900000000000000E9    -1.816193245408557E-1   -1.206990165701321E-1
 9.910000000000000E9    -2.026540169914533E-1   -1.932035726329595E-2
 9.920000000000000E9    -1.895317136667788E-1    6.350413653294636E-2
 9.930000000000000E9    -1.476318617273128E-1    1.536346394301153E-1
 9.940000000000000E9    -5.635511397840094E-2    2.232775411317486E-1
 9.950000000000000E9     7.506228143523137E-2    2.321097527770209E-1
 9.960000000000000E9     1.966751716172054E-1    1.553871500680191E-1
 9.970000000000000E9     2.397156047823995E-1    2.467417744335971E-2
 9.980000000000000E9     2.046582358410520E-1   -1.081686125044112E-1
 9.990000000000000E9     1.148980884473266E-1   -1.773424220659886E-1
 1.000000000000000E+10   2.645117302486105E-2   -2.009069975564573E-1
 1.001000000000000E+10  -6.728535166743953E-2   -1.931160454629398E-1
 1.002000000000000E+10  -1.582336260378291E-1   -1.477489125602200E-1
 1.003000000000000E+10  -2.224028047298403E-1   -4.332263223502054E-2
 1.004000000000000E+10  -2.253779707289960E-1    9.464671730421122E-2
 1.005000000000000E+10  -1.211065729696960E-1    1.976752776484644E-1
 1.006000000000000E+10   6.240246777096110E-3    2.121506809591404E-1
 1.007000000000000E+10   9.579384783380022E-2    1.688981512817394E-1
 1.008000000000000E+10   1.476712170656008E-1    1.016975005263780E-1
 1.009000000000000E+10   1.731682452077527E-1    2.759074492745909E-2
 1.010000000000000E+10   1.776838222536963E-1   -4.828668876223120E-2
 1.011000000000000E+10   1.307251637621881E-1   -1.444372001829787E-1
 1.012000000000000E+10   3.455632114280630E-2   -2.031390931766996E-1
 1.013000000000000E+10  -8.458951645939450E-2   -1.792457887818892E-1
 1.014000000000000E+10  -1.513266003457676E-1   -9.219957742741769E-2
 1.015000000000000E+10  -1.560026690850761E-1    1.330298576007931E-3
 1.016000000000000E+10  -1.194773459902490E-1    5.440178878204991E-2
 1.017000000000000E+10  -9.337309797927532E-2    9.228925257697362E-2
 1.018000000000000E+10  -5.787028984843567E-2    1.355217682414869E-1
 1.019000000000000E+10   2.846288296604310E-2    1.541219067658492E-1
 1.020000000000000E+10   1.166761153052427E-1    1.242763526728096E-1
 1.021000000000000E+10   1.578897879810652E-1    3.386451387713588E-2
 1.022000000000000E+10   1.296075796343900E-1   -4.531645804653915E-2
 1.023000000000000E+10   8.636750910105685E-2   -9.059970322060917E-2
 1.024000000000000E+10   4.222310411378168E-2   -9.776946822754833E-2
 1.025000000000000E+10  -4.745197802651134E-4   -1.086092452571423E-1
 1.026000000000000E+10  -4.415839081575090E-2   -1.217982392940931E-1
 1.027000000000000E+10  -1.078602937814827E-1   -7.901563727370828E-2
 1.028000000000000E+10  -1.425528165335957E-1   -6.544089202842856E-3
 1.029000000000000E+10  -1.186954792861119E-1    8.582043432827423E-2
 1.030000000000000E+10  -4.245034877287459E-2    1.172404363737622E-1
 1.031000000000000E+10   2.143945098172837E-2    1.054005050289100E-1
 1.032000000000000E+10   4.997699565039092E-2    7.953139431665752E-2
 1.033000000000000E+10   7.927806929046131E-2    6.514731062133393E-2
 1.034000000000000E+10   1.261208458009835E-1    3.243620522059772E-2
 1.035000000000000E+10   1.424702702976550E-1   -4.402689479443097E-2
 1.036000000000000E+10   8.829627536509507E-2   -1.240126188334786E-1
 1.037000000000000E+10   7.326968261114504E-3   -1.525908301614111E-1
 1.038000000000000E+10  -7.165031303568262E-2   -1.219426342425024E-1
 1.039000000000000E+10  -1.053325831359607E-1   -6.110513073102102E-2
 1.040000000000000E+10  -1.075565271420163E-1   -1.591095626709830E-2
 1.041000000000000E+10  -1.050107871309243E-1    2.019941761374482E-2
 1.042000000000000E+10  -1.104017934306074E-1    7.670188119103696E-2
 1.043000000000000E+10  -5.803983735285961E-2    1.418988159456256E-1
 1.044000000000000E+10   4.094726786285931E-2    1.526048966209140E-1
 1.045000000000000E+10   1.196581111901202E-1    9.148522418434772E-2
 1.046000000000000E+10   1.325435891364879E-1    1.090455581322128E-2
 1.047000000000000E+10   1.033451857090384E-1   -4.635310826158490E-2
 1.048000000000000E+10   6.993282493146870E-2   -7.004725295881692E-2
 1.049000000000000E+10   4.277743923229665E-2   -8.882511176218590E-2
 1.050000000000000E+10  -4.759711295301976E-3   -1.116386115160315E-1
 1.051000000000000E+10  -6.773387588588958E-2   -1.129319660491771E-1
 1.052000000000000E+10  -1.274811747034630E-1   -4.153830315201834E-2
 1.053000000000000E+10  -1.201890628111845E-1    3.933877247192165E-2
 1.054000000000000E+10  -6.462766198162513E-2    9.831249772568894E-2
 1.055000000000000E+10  -3.885679530372640E-3    9.912090308270444E-2
 1.056000000000000E+10   2.161729079558447E-2    7.848345228034434E-2
 1.057000000000000E+10   4.378283906755196E-2    8.311495481221376E-2
 1.058000000000000E+10   8.788434664662738E-2    6.090342248655007E-2
 1.059000000000000E+10   1.315820862436179E-1    1.529512266347693E-2
 1.060000000000000E+10   1.202207179130702E-1   -6.330585462064292E-2
 1.061000000000000E+10   5.869836482855342E-2   -1.172267932705882E-1
 1.062000000000000E+10  -2.121362827420643E-2   -1.075544526763232E-1
 1.063000000000000E+10  -5.907700426280267E-2   -6.638136641263918E-2
 1.064000000000000E+10  -6.120741062117987E-2   -3.375505309127150E-2
 1.065000000000000E+10  -7.947856899707496E-2   -2.700424238474079E-2
 1.066000000000000E+10  -1.005009184355339E-1    3.160595953161967E-2
 1.067000000000000E+10  -7.747453727098540E-2    9.952923746399020E-2
 1.068000000000000E+10  -1.995096352125997E-3    1.453115669790386E-1
 1.069000000000000E+10   8.095883704477314E-2    1.239599906030062E-1
 1.070000000000000E+10   1.324285265184142E-1    5.718710539493956E-2
 1.071000000000000E+10   1.315136467689701E-1   -1.119628598786143E-2
 1.072000000000000E+10   1.110988154598442E-1   -5.449984825149716E-2
 1.073000000000000E+10   9.843802349424773E-2   -8.039373230456812E-2
 1.074000000000000E+10   5.560143136671492E-2   -1.348422540311797E-1
 1.075000000000000E+10  -2.392112891769508E-2   -1.474960677839106E-1
 1.076000000000000E+10  -1.130236146111823E-1   -1.067064245781888E-1
 1.077000000000000E+10  -1.460923215756471E-1   -9.747001164036031E-3
 1.078000000000000E+10  -1.039494330809425E-1    7.826547264182411E-2
 1.079000000000000E+10  -2.797005957920696E-2    1.026755651524809E-1
 1.080000000000000E+10   2.121036929414239E-2    9.787593013167728E-2
 1.081000000000000E+10   5.314974819876318E-2    7.956497439962718E-2
 1.082000000000000E+10   9.493115885042162E-2    6.492111549839098E-2
 1.083000000000000E+10   1.309426467333242E-1    4.166658578239135E-3
 1.084000000000000E+10   1.250455229777704E-1   -7.342935073481308E-2
 1.085000000000000E+10   5.929927782902791E-2   -1.426303029271256E-1
 1.086000000000000E+10  -3.798675724361987E-2   -1.364787300580549E-1
 1.087000000000000E+10  -9.024282151183663E-2   -6.751367351293473E-2
 1.088000000000000E+10  -8.784688556242227E-2   -8.353136741729895E-3
 1.089000000000000E+10  -6.732329143455715E-2    2.808677089565668E-2
 1.090000000000000E+10  -6.003818514277841E-2    4.856090622842303E-2
 1.091000000000000E+10  -2.920741181896029E-2    8.501040928422375E-2
 1.092000000000000E+10   3.353712812641241E-2    1.025247979218199E-1
 1.093000000000000E+10   9.819517815140068E-2    7.822466465349676E-2
 1.094000000000000E+10   1.327000121043217E-1    3.671060181863486E-3
 1.095000000000000E+10   8.250302477123057E-2   -6.519769517986901E-2
 1.096000000000000E+10   3.253422187897492E-2   -7.182773788443321E-2
 1.097000000000000E+10   5.612166142957994E-3   -5.885906324050073E-2
 1.098000000000000E+10   3.170715300531933E-3   -5.145839082375900E-2
 1.099000000000000E+10  -1.726835438645281E-2   -5.587343602646352E-2
 1.100000000000000E+10  -4.803982516954216E-2   -3.646365812979639E-2
 1.101000000000000E+10  -6.541220034999153E-2    7.492319296106988E-3
 1.102000000000000E+10  -3.572155835552844E-2    5.350888120782989E-2
 1.103000000000000E+10   2.358732989860311E-2    5.288770306014463E-2
 1.104000000000000E+10   3.812753282302263E-2    1.256828131799619E-2
 1.105000000000000E+10   2.272652623361964E-2   -1.034077972599915E-2
 1.106000000000000E+10  -7.741417835184472E-4    4.963916421081613E-3
 1.107000000000000E+10   2.295751738011013E-2    3.054158037728229E-2
 1.108000000000000E+10   5.323649234693711E-2    9.015506960993640E-3
 1.109000000000000E+10   3.691827741205976E-2   -2.766184987531485E-2
 1.110000000000000E+10   6.858526393324234E-3   -3.358314106840846E-2
 1.111000000000000E+10  -6.206844325737425E-3   -5.112907009410901E-3
 1.112000000000000E+10   2.173336039742912E-2    1.019294572754069E-2
 1.113000000000000E+10   3.749775513148450E-2   -7.578137523123993E-3
 1.114000000000000E+10   2.607168684864456E-2   -3.331201409487343E-2
 1.115000000000000E+10  -2.395991140318471E-2   -3.947707123946517E-2
 1.116000000000000E+10  -4.012732442192658E-2   -1.666597300775835E-3
 1.117000000000000E+10  -5.062799697897483E-3    3.408989977906771E-2
 1.118000000000000E+10   2.268248202076434E-2    1.765319446296941E-2
 1.119000000000000E+10   1.971205574908254E-2   -3.518139538502645E-3
 1.120000000000000E+10  -4.593460940162759E-3    1.744820163149882E-3
 1.121000000000000E+10   5.890456230687984E-3    2.623639267927143E-2
 1.122000000000000E+10   3.738099131126610E-2    3.122679912128144E-2
 1.123000000000000E+10   5.884302017005388E-2   -9.516750905347229E-3
 1.124000000000000E+10   3.221509867828001E-2   -4.570232043360755E-2
 1.125000000000000E+10  -1.453180679425461E-2   -3.279263579880963E-2
 1.126000000000000E+10  -1.219530728369861E-2    6.952788504737107E-3
 1.127000000000000E+10   3.568687919326039E-3    1.917736635482996E-2
 1.128000000000000E+10   2.284477887096713E-2    7.490894090790933E-3
 1.129000000000000E+10   4.590106972157936E-3   -1.099857858583766E-2
 1.130000000000000E+10  -1.620841845901051E-2    4.070005136432326E-3
 1.131000000000000E+10  -1.650119472974791E-4    3.921957910150180E-2
 1.132000000000000E+10   4.658030678566093E-2    4.443000704561796E-2
 1.133000000000000E+10   6.846221604623479E-2    1.307577384448534E-3
 1.134000000000000E+10   2.738666055667387E-2   -3.234018386939725E-2
 1.135000000000000E+10  -1.007807354319122E-2   -1.091303803088313E-2
 1.136000000000000E+10   5.928405131038441E-3    1.786118776151230E-2
 1.137000000000000E+10   4.062588203328549E-2    9.867461861834050E-3
 1.138000000000000E+10   4.158818068711160E-2   -2.272133817575397E-2
 1.139000000000000E+10   7.798926436212254E-3   -2.960080676906874E-2
 1.140000000000000E+10  -1.171995655969516E-2    1.174581695087271E-3
 1.141000000000000E+10   1.005676019006010E-2    2.242181452640216E-2
 1.142000000000000E+10   4.001842038236243E-2    9.856793501020145E-3
 1.143000000000000E+10   3.469671198833413E-2   -1.636583675902857E-2
 1.144000000000000E+10   1.117784351553158E-2   -2.965399918618025E-2
 1.145000000000000E+10  -1.431421882139530E-2   -5.763375678423974E-3
 1.146000000000000E+10   1.042940832229033E-3    3.072577113379980E-2
 1.147000000000000E+10   3.634387903283441E-2    2.093451640074930E-2
 1.148000000000000E+10   3.138085907023964E-2   -1.512797085777157E-2
 1.149000000000000E+10  -1.014462587538295E-3   -1.690395612695299E-2
 1.150000000000000E+10  -1.207504122630159E-2    1.333914946391548E-2
 1.151000000000000E+10   3.061108920680244E-2    3.088545536474202E-2
 1.152000000000000E+10   5.554215743908893E-2   -1.491784988819974E-3
 1.153000000000000E+10   3.742761819609873E-2   -2.744355961305850E-2
 1.154000000000000E+10  -3.888859982281536E-3   -3.213186877148810E-2
 1.155000000000000E+10  -2.413636531894893E-2    1.299180748319109E-3
 1.156000000000000E+10   6.642499837183678E-3    1.803098654611776E-2
 1.157000000000000E+10   2.349433124857282E-2    4.845162049723814E-3
 1.158000000000000E+10   1.956144567976759E-2   -1.239018061363905E-2
 1.159000000000000E+10  -1.077388385235858E-2   -1.107810678274645E-2
 1.160000000000000E+10  -1.749079940197210E-2    3.277990556362814E-2
 1.161000000000000E+10   2.027380955780605E-2    5.314111641259557E-2
 1.162000000000000E+10   6.119407640990487E-2    2.052148147219494E-2
 1.163000000000000E+10   4.466075805994297E-2   -1.709898467579633E-2
 1.164000000000000E+10   1.508091796351475E-2   -4.823065297170788E-3
 1.165000000000000E+10   2.860666035828619E-2    9.411172665858879E-3
 1.166000000000000E+10   4.730383711114638E-2   -1.567502277133632E-3
 1.167000000000000E+10   4.859174300439387E-2   -3.968894031701408E-2
 1.168000000000000E+10  -1.750272008905281E-3   -6.057592497205331E-2
 1.169000000000000E+10  -4.370302317977494E-2   -4.060279920993319E-2
 1.170000000000000E+10  -4.549866342356153E-2    1.594690883353890E-4
 1.171000000000000E+10  -2.221819869693776E-2    3.436109923946460E-2
 1.172000000000000E+10   3.160064830933879E-3    3.006581585879791E-2
 1.173000000000000E+10  -3.755757194593158E-3    2.855507419975880E-2
 1.174000000000000E+10  -4.443944839376066E-3    5.245596151789312E-2
 1.175000000000000E+10   2.681576898699143E-2    7.576073126792573E-2
 1.176000000000000E+10   9.361687076738950E-2    5.516562948344519E-2
 1.177000000000000E+10   1.161292303613062E-1   -2.643558810513904E-2
 1.178000000000000E+10   5.869697573876970E-2   -7.513146019563481E-2
 1.179000000000000E+10   2.435807523480932E-3   -6.462534962719696E-2
 1.180000000000000E+10  -1.784911508441226E-2   -4.255377942146171E-2
 1.181000000000000E+10  -2.594311616059523E-2   -3.332683061551867E-2
 1.182000000000000E+10  -5.139600527290981E-2   -1.975385695044651E-2
 1.183000000000000E+10  -7.059130764637125E-2    1.410791478046834E-2
 1.184000000000000E+10  -6.060312612284961E-2    7.484946552460786E-2
 1.185000000000000E+10   6.813760119037194E-4    1.254842628810872E-1
 1.186000000000000E+10   7.896981017991193E-2    1.041667591987367E-1
 1.187000000000000E+10   1.200113394480596E-1    4.544582149332949E-2
 1.188000000000000E+10   1.121621731461375E-1   -1.970494438099746E-2
 1.189000000000000E+10   8.108509876450788E-2   -4.739935534328400E-2
 1.190000000000000E+10   7.425181788678786E-2   -6.498620980780317E-2
 1.191000000000000E+10   5.279954679856551E-2   -9.996585377007566E-2
 1.192000000000000E+10  -1.915253998686292E-2   -1.176688636328750E-1
 1.193000000000000E+10  -1.026541353612650E-1   -7.476817070672580E-2
 1.194000000000000E+10  -1.157572977103089E-1    2.431632240821417E-2
 1.195000000000000E+10  -6.570822604995935E-2    7.606819722456298E-2
 1.196000000000000E+10  -1.487755588969729E-2    9.344852406582964E-2
 1.197000000000000E+10   3.930899455185362E-2    8.034869669727464E-2
 1.198000000000000E+10   5.628542200999426E-2    5.471606577809035E-2
 1.199000000000000E+10   7.768894877379451E-2    4.558419651112210E-2
 1.200000000000000E+10   1.007421908413302E-1    6.280487969016785E-3
 1.201000000000000E+10   1.070469621311055E-1   -5.843084536718977E-2
 1.202000000000000E+10   5.367903151912493E-2   -1.200768907869088E-1
 1.203000000000000E+10  -3.882544677314490E-2   -1.149797495073156E-1
 1.204000000000000E+10  -8.100022330686263E-2   -4.866060985522266E-2
 1.205000000000000E+10  -6.632080900803325E-2    8.960990626800034E-3
 1.206000000000000E+10  -4.331127239765085E-2    2.183859463318909E-2
 1.207000000000000E+10  -5.387877903091432E-2    2.904232822454815E-2
 1.208000000000000E+10  -3.707780691526826E-2    7.147653457553933E-2
 1.209000000000000E+10   1.679746821346317E-2    9.171917258272505E-2
 1.210000000000000E+10   6.921427497443336E-2    6.767626627350509E-2
 1.211000000000000E+10   9.488599332723358E-2    1.352504917817435E-2
 1.212000000000000E+10   7.282140351296322E-2   -2.926127417343422E-2
 1.213000000000000E+10   2.524973660546313E-2   -5.312025207100213E-2
 1.214000000000000E+10  -6.805043111961344E-3   -2.997102290747813E-2
 1.215000000000000E+10   5.372242066056651E-3   -2.002527555651584E-2
 1.216000000000000E+10  -1.239879258160565E-3   -3.873802318862328E-2
 1.217000000000000E+10  -4.428732822452355E-2   -3.422017683940722E-2
 1.218000000000000E+10  -6.051180959848861E-2    1.328520227984388E-2
 1.219000000000000E+10  -3.197246400949696E-2    6.813151223111810E-2
 1.220000000000000E+10   2.231244614076377E-2    6.781679721981256E-2
 1.221000000000000E+10   4.433037769867946E-2    2.114724495556950E-2
 1.222000000000000E+10   3.133011827929213E-2    6.649808443710594E-3
 1.223000000000000E+10   3.306976820691184E-2    1.417402197952223E-2
 1.224000000000000E+10   4.552020304590209E-2    1.519752945830962E-2
 1.225000000000000E+10   6.216883047988377E-2   -1.630617135618730E-2
 1.226000000000000E+10   4.614703505093477E-2   -5.375276868391978E-2
 1.227000000000000E+10  -2.414348089038476E-3   -7.359153005239683E-2
 1.228000000000000E+10  -4.528065608199412E-2   -5.293471116042320E-2
 1.229000000000000E+10  -4.375779446510882E-2    1.610026331790249E-3
 1.230000000000000E+10  -1.627109207678082E-2    6.884596131000642E-3
 1.231000000000000E+10  -2.076405859783133E-2    5.793510072302256E-4
 1.232000000000000E+10  -4.466530671710050E-2    1.318641841956315E-2
 1.233000000000000E+10  -2.861789133517428E-2    6.112156387719730E-2
 1.234000000000000E+10   2.083308248312405E-2    6.814008635038146E-2
 1.235000000000000E+10   5.849782689869212E-2    3.222596864435983E-2
 1.236000000000000E+10   6.908677076163110E-2   -1.162282051611424E-2
 1.237000000000000E+10   3.514952692788811E-2   -3.968547710230421E-2
 1.238000000000000E+10   1.186205139948453E-2   -3.153231725671980E-2
 1.239000000000000E+10   7.561504998851041E-3   -3.758030475889877E-2
 1.240000000000000E+10  -6.248426436601593E-3   -4.228430860193892E-2
 1.241000000000000E+10  -3.173251357937924E-2   -5.577698156737992E-2
 1.242000000000000E+10  -7.531312145826358E-2   -2.913309666962422E-2
 1.243000000000000E+10  -7.461751004263575E-2    3.060710760135716E-2
 1.244000000000000E+10  -3.864790995033147E-2    7.684761417926718E-2
 1.245000000000000E+10   1.890831931510692E-2    6.193668484211030E-2
 1.246000000000000E+10   2.081693665851324E-2    2.455844714429225E-2
 1.247000000000000E+10   1.509461358364926E-2    2.573822833530053E-2
 1.248000000000000E+10   3.277360222528616E-2    2.753477269794853E-2
 1.249000000000000E+10   6.018875023471790E-2    3.931839245843095E-3
 1.250000000000000E+10   5.981571560224951E-2   -3.874613264221270E-2
