#  HZ   S   RI   R     50.00 
! Rohde & Schwarz Vector Network Analyzer 
! Rohde-Schwarz,ZNA43-4Port,1332450044101932,2.92
! Created: UTC 6/9/2026, 6:44:47 AM
! freq[Hz]                re:S11                  im:S11
 8.000000000000000E9    -2.394975039278351E-1   -3.045732936771522E-1
 8.010000000000000E9    -3.610681287040964E-1   -1.103738814807553E-1
 8.020000000000000E9    -3.446094241314728E-1    1.202678334841251E-1
 8.030000000000000E9    -1.951990561620636E-1    2.932070821987081E-1
 8.040000000000000E9     1.824186580023343E-2    3.367238733947360E-1
 8.050000000000000E9     1.997553172028432E-1    2.430319730052950E-1
 8.060000000000000E9     2.610738386590182E-1    7.316774859001715E-2
 8.070000000000000E9     2.114036823937113E-1   -6.579936846230493E-2
 8.080000000000000E9     1.166361068293797E-1   -1.290488239042925E-1
 8.090000000000000E9     3.083698289768236E-2   -1.171861664560981E-1
 8.100000000000000E9     6.661952150145822E-3   -6.624773174582194E-2
 8.110000000000000E9     2.802421916183031E-2   -4.886553783299648E-2
 8.120000000000000E9     4.115102861576185E-2   -9.073652900632334E-2
 8.130000000000000E9    -1.248168871704732E-2   -1.526808689274383E-1
 8.140000000000000E9    -1.312739341648368E-1   -1.587029250336447E-1
 8.150000000000000E9    -2.501855682891386E-1   -5.804428550080505E-2
 8.160000000000000E9    -2.663779469141553E-1    1.346256576821896E-1
 8.170000000000000E9    -1.460601428101214E-1    3.081179514328161E-1
 8.180000000000000E9     7.409646571386516E-2    3.689983020214939E-1
 8.190000000000000E9     2.870522959622094E-1    2.679905672930836E-1
 8.200000000000000E9     3.937571807736832E-1    5.631544206903042E-2
 8.210000000000000E9     3.577169568626024E-1   -1.826138766501637E-1
 8.220000000000000E9     1.862683868792373E-1   -3.475084832224779E-1
 8.230000000000000E9    -4.637866919644228E-2   -3.728468739515626E-1
 8.240000000000000E9    -2.469969744252642E-1   -2.539192999694306E-1
 8.250000000000000E9    -3.305797901328884E-1   -4.418050637357015E-2
 8.260000000000000E9    -2.787605650474607E-1    1.502656160174651E-1
 8.270000000000000E9    -1.270893316434160E-1    2.743276346099632E-1
 8.280000000000000E9     5.791803751585489E-2    2.772173545080878E-1
 8.290000000000000E9     1.951321692308317E-1    1.744026279512000E-1
 8.300000000000000E9     2.289862121307824E-1    2.503656887500173E-2
 8.310000000000000E9     1.606416363804220E-1   -8.737306741285865E-2
 8.320000000000000E9     5.591493446285897E-2   -1.163172416320651E-1
 8.330000000000000E9    -9.376989592109730E-3   -7.371957184223500E-2
 8.340000000000000E9    -7.644555476039453E-3   -1.851074230642774E-2
 8.350000000000000E9     3.314814230730186E-2   -7.444380347268167E-3
 8.360000000000000E9     5.653334280906013E-2   -4.963915994018712E-2
 8.370000000000000E9     1.377879313199238E-2   -1.043902886363050E-1
 8.380000000000000E9    -7.884144820505437E-2   -1.025460284502083E-1
 8.390000000000000E9    -1.509025674302680E-1   -2.725026340982597E-2
 8.400000000000000E9    -1.641394830826733E-1    8.864710564852342E-2
 8.410000000000000E9    -7.704307302964684E-2    2.012071914631551E-1
 8.420000000000000E9     7.132000768771402E-2    2.366512609246093E-1
 8.430000000000000E9     2.223795756387652E-1    1.680792395527688E-1
 8.440000000000000E9     2.949547401976937E-1    4.705801238873246E-3
 8.450000000000000E9     2.379567654661575E-1   -1.693051182176568E-1
 8.460000000000000E9     8.373012101748649E-2   -2.720737378964064E-1
 8.470000000000000E9    -1.015994042824976E-1   -2.488181588211230E-1
 8.480000000000000E9    -2.171487365693319E-1   -1.125817828253717E-1
 8.490000000000000E9    -2.184490454287754E-1    5.656085970186264E-2
 8.500000000000000E9    -1.104053035172766E-1    1.836326771365739E-1
 8.510000000000000E9     3.686555891722332E-2    1.965239096844015E-1
 8.520000000000000E9     1.398439482629764E-1    1.198748918290771E-1
 8.530000000000000E9     1.664761260387854E-1    1.992896515336850E-3
 8.540000000000000E9     1.099879475454114E-1   -8.762181658783261E-2
 8.550000000000000E9     2.450415946948070E-2   -1.123472129951662E-1
 8.560000000000000E9    -5.416057023155720E-2   -6.558137739040984E-2
 8.570000000000000E9    -6.889577417303078E-2    1.773379443279671E-2
 8.580000000000000E9    -2.535612441493929E-2    7.669873619621384E-2
 8.590000000000000E9     5.138927090708289E-2    8.720901674513323E-2
 8.600000000000000E9     1.152837901160810E-1    2.514666886771708E-2
 8.610000000000000E9     1.100160699322040E-1   -6.669042394302115E-2
 8.620000000000000E9     3.617873044679586E-2   -1.244872264447647E-1
 8.630000000000000E9    -6.655930979719839E-2   -1.053371008318895E-1
 8.640000000000000E9    -1.291101122117752E-1   -1.093520041498240E-2
 8.650000000000000E9    -1.033277196983253E-1    1.075442072770649E-1
 8.660000000000000E9     8.691503604604396E-3    1.697841432793548E-1
 8.670000000000000E9     1.424028227545566E-1    1.290767237569240E-1
 8.680000000000000E9     2.069280298684233E-1    3.981884496408966E-4
 8.690000000000000E9     1.593555704717128E-1   -1.403100471911972E-1
 8.700000000000000E9     2.114063144050904E-2   -2.009872798316640E-1
 8.710000000000000E9    -1.191136815296171E-1   -1.491980072342214E-1
 8.720000000000000E9    -1.844646227431932E-1   -1.660953674444923E-2
 8.730000000000000E9    -1.365695728172031E-1    1.204994008870677E-1
 8.740000000000000E9    -1.314474975919218E-2    1.887706509148911E-1
 8.750000000000000E9     1.284641374748328E-1    1.538467590855331E-1
 8.760000000000000E9     2.047117497559105E-1    3.555307969251928E-2
 8.770000000000000E9     1.771614570667772E-1   -1.055162372637838E-1
 8.780000000000000E9     5.694674167654753E-2   -1.978356988135562E-1
 8.790000000000000E9    -1.067884611501638E-1   -1.731923076760897E-1
 8.800000000000000E9    -1.922479167497390E-1   -4.236881358834511E-2
 8.810000000000000E9    -1.609278061669484E-1    1.109510092140742E-1
 8.820000000000000E9    -3.185081361016300E-2    1.947188346898177E-1
 8.830000000000000E9     1.058739414084619E-1    1.681603451957669E-1
 8.840000000000000E9     1.854589662151576E-1    6.034104592065150E-2
 8.850000000000000E9     1.635712180383848E-1   -6.806199340927478E-2
 8.860000000000000E9     6.819705735945474E-2   -1.405812826832359E-1
 8.870000000000000E9    -4.208945419266119E-2   -1.266998130858386E-1
 8.880000000000000E9    -1.031698008409568E-1   -4.283623744408048E-2
 8.890000000000000E9    -8.585234048145125E-2    5.384834423632365E-2
 8.900000000000000E9    -1.313272929591227E-2    1.085350677580469E-1
 8.910000000000000E9     7.838037806275806E-2    9.097034771235146E-2
 8.920000000000000E9     1.271596171113457E-1    1.291912636702134E-2
 8.930000000000000E9     1.104832024226833E-1   -8.222214491202391E-2
 8.940000000000000E9     2.548186577707941E-2   -1.407484679299574E-1
 8.950000000000000E9    -8.125246471011303E-2   -1.206884251102434E-1
 8.960000000000000E9    -1.527847843803904E-1   -2.899188346028006E-2
 8.970000000000000E9    -1.513347722568751E-1    9.363061083969342E-2
 8.980000000000000E9    -6.239223032932822E-2    1.938109289915286E-1
 8.990000000000000E9     8.565524448733926E-2    2.072932153968332E-1
 9.000000000000000E9     2.114705368232970E-1    1.075580332428711E-1
 9.010000000000000E9     2.390492797376243E-1   -4.639852388689048E-2
 9.020000000000000E9     1.562060679386882E-1   -1.757471743082957E-1
 9.030000000000000E9     1.199828902940616E-2   -2.227387358577791E-1
 9.040000000000000E9    -1.259438721009690E-1   -1.666760006603995E-1
 9.050000000000000E9    -1.969741046275637E-1   -4.430825219485452E-2
 9.060000000000000E9    -1.726947946923013E-1    9.072559668413931E-2
 9.070000000000000E9    -6.908899269394649E-2    1.732086331888868E-1
 9.080000000000000E9     5.638566911698221E-2    1.658182552104978E-1
 9.090000000000000E9     1.281771448227245E-1    8.772025104730211E-2
 9.100000000000000E9     1.275891288293108E-1   -1.502800145783481E-3
 9.110000000000000E9     6.974583956262456E-2   -5.644628935006071E-2
 9.120000000000000E9     1.232038216778964E-2   -4.191959106275990E-2
 9.130000000000000E9     6.044209878485640E-3    2.550356037443310E-3
 9.140000000000000E9     5.088020794701869E-2    1.722590382108286E-2
 9.150000000000000E9     9.420288850141212E-2   -3.220111725737630E-2
 9.160000000000000E9     6.575456329045085E-2   -1.090220127465084E-1
 9.170000000000000E9    -2.664614425535054E-2   -1.522977748859852E-1
 9.180000000000000E9    -1.379013152054283E-1   -1.176700134476735E-1
 9.190000000000000E9    -2.046475123649496E-1   -1.344232473136815E-2
 9.200000000000000E9    -1.926472215608620E-1    1.193986983044844E-1
 9.210000000000000E9    -9.591284978556142E-2    2.314303989188000E-1
 9.220000000000000E9     5.627957848327202E-2    2.699180821487312E-1
 9.230000000000000E9     2.103694830933596E-1    2.059980237932154E-1
 9.240000000000000E9     3.005982782322024E-1    5.621276065496226E-2
 9.250000000000000E9     2.841939427327927E-1   -1.247044872947917E-1
 9.260000000000000E9     1.683649403713010E-1   -2.685636340733262E-1
 9.270000000000000E9    -2.321698859358921E-2   -3.207832945545966E-1
 9.280000000000000E9    -2.111785305326917E-1   -2.388051619519790E-1
 9.290000000000000E9    -3.091076212715959E-1   -5.698587321435739E-2
 9.300000000000000E9    -2.753053186432234E-1    1.431309207357586E-1
 9.310000000000000E9    -1.279804777860009E-1    2.731425811331298E-1
 9.320000000000000E9     5.569764665708281E-2    2.805845399925453E-1
 9.330000000000000E9     2.016064478705688E-1    1.825180166682918E-1
 9.340000000000000E9     2.442706964804271E-1    1.741480093737498E-2
 9.350000000000000E9     1.711715451084346E-1   -1.122178971274318E-1
 9.360000000000000E9     4.707897318361070E-2   -1.449855113878167E-1
 9.370000000000000E9    -4.163814060552563E-2   -9.221595586368812E-2
 9.380000000000000E9    -5.284356380091383E-2   -1.707733361777719E-2
 9.390000000000000E9    -3.324438390381172E-3    1.747383276538153E-2
 9.400000000000000E9     5.405177725262834E-2   -1.817925245121313E-2
 9.410000000000000E9     4.100758722660549E-2   -1.000738314899549E-1
 9.420000000000000E9    -5.933126422664346E-2   -1.439210460884505E-1
 9.430000000000000E9    -1.834392657654473E-1   -8.231156998544360E-2
 9.440000000000000E9    -2.268946488826412E-1    6.698357205211478E-2
 9.450000000000000E9    -1.579544871121165E-1    2.136382768199688E-1
 9.460000000000000E9     2.000614944390623E-3    2.916145354596309E-1
 9.470000000000000E9     1.847795758662900E-1    2.511335229703504E-1
 9.480000000000000E9     3.082342672845348E-1    1.016357629158579E-1
 9.490000000000000E9     3.153225560713620E-1   -9.510141076399117E-2
 9.500000000000000E9     2.006330272570989E-1   -2.577914451255563E-1
 9.510000000000000E9     1.194654669778616E-2   -3.222247954833392E-1
 9.520000000000000E9    -1.681964834747655E-1   -2.665321304016998E-1
 9.530000000000000E9    -2.796603184045610E-1   -1.232690001888417E-1
 9.540000000000000E9    -2.902724085521337E-1    5.126921532325197E-2
 9.550000000000000E9    -2.037108202658229E-1    2.011093773351685E-1
 9.560000000000000E9    -5.836796298292711E-2    2.687637099413225E-1
 9.570000000000000E9     8.950065255916581E-2    2.386929733534706E-1
 9.580000000000000E9     1.847856208209928E-1    1.409603218887288E-1
 9.590000000000000E9     2.080517013441861E-1    1.267326368264395E-2
 9.600000000000000E9     1.541496721454010E-1   -9.523932849602054E-2
 9.610000000000000E9     5.737908720418641E-2   -1.347050989062591E-1
 9.620000000000000E9    -2.892292227488910E-2   -1.008293651724152E-1
 9.630000000000000E9    -4.642751131202495E-2   -3.111699332714655E-2
 9.640000000000000E9    -6.072648104006733E-3   -3.471629877464884E-3
 9.650000000000000E9     2.174808811029364E-2   -3.805249588725720E-2
 9.660000000000000E9    -1.058661015307123E-2   -9.317919246262894E-2
 9.670000000000000E9    -9.752962570947284E-2   -9.645493186525425E-2
 9.680000000000000E9    -1.772700332217299E-1   -2.467155819598791E-2
 9.690000000000000E9    -1.974715948551217E-1    1.103287138865128E-1
 9.700000000000000E9    -1.059731341572825E-1    2.402382714078601E-1
 9.710000000000000E9     5.867418065832381E-2    2.778407062472253E-1
 9.720000000000000E9     2.209140093590027E-1    2.008907341856003E-1
 9.730000000000000E9     3.055607615203236E-1    4.029996887540370E-2
 9.740000000000000E9     2.804408059304511E-1   -1.416393763793869E-1
 9.750000000000000E9     1.498411544588828E-1   -2.763464577731415E-1
 9.760000000000000E9    -4.345784703895706E-2   -3.029723809573696E-1
 9.770000000000000E9    -2.078851678433948E-1   -2.149075218877134E-1
 9.780000000000000E9    -2.818316761065205E-1   -4.879655302607960E-2
 9.790000000000000E9    -2.400614601812418E-1    1.124665201349788E-1
 9.800000000000000E9    -1.268039138925774E-1    2.081128176609697E-1
 9.810000000000000E9     7.855267995204175E-3    2.260687564703951E-1
 9.820000000000000E9     1.138653276983379E-1    1.694372917702986E-1
 9.830000000000000E9     1.608161330729491E-1    7.387620151274679E-2
 9.840000000000000E9     1.419090881930080E-1   -1.430695801315154E-2
 9.850000000000000E9     8.817787477157381E-2   -5.824082401713327E-2
 9.860000000000000E9     4.898741061142679E-2   -5.474540379767640E-2
 9.870000000000000E9     4.426759750612905E-2   -4.280718229265850E-2
 9.880000000000000E9     5.603249584586874E-2   -5.783723645467873E-2
 9.890000000000000E9     4.645502392206668E-2   -1.023432950525001E-1
 9.900000000000000E9    -1.083513615243155E-2   -1.489145065835454E-1
 9.910000000000000E9    -1.144135314849085E-1   -1.557564385692721E-1
 9.920000000000000E9    -2.181461677635120E-1   -7.586197970023793E-2
 9.930000000000000E9    -2.509867641422052E-1    7.113247542583541E-2
 9.940000000000000E9    -1.836690559849219E-1    2.245970048228566E-1
 9.950000000000000E9    -2.208053163774412E-2    3.194008844646725E-1
 9.960000000000000E9     1.753289066382186E-1    2.902383450345397E-1
 9.970000000000000E9     3.212668255733866E-1    1.435651080316825E-1
 9.980000000000000E9     3.553050802450571E-1   -7.335884347501753E-2
 9.990000000000000E9     2.500018830275718E-1   -2.686458693896372E-1
 1.000000000000000E+10   5.072522284665066E-2   -3.662767698976590E-1
 1.001000000000000E+10  -1.677735115715371E-1   -3.218434976872838E-1
 1.002000000000000E+10  -3.187700259707231E-1   -1.605456347437323E-1
 1.003000000000000E+10  -3.413864774111718E-1    5.478234725884622E-2
 1.004000000000000E+10  -2.342639647679385E-1    2.336600544824586E-1
 1.005000000000000E+10  -4.966381111922502E-2    3.017990230209749E-1
 1.006000000000000E+10   1.250476396539718E-1    2.540784517128454E-1
 1.007000000000000E+10   2.266752889012503E-1    1.175057304948933E-1
 1.008000000000000E+10   2.159718495731551E-1   -2.878455339411081E-2
 1.009000000000000E+10   1.303675462244990E-1   -1.224869419948639E-1
 1.010000000000000E+10   2.382112603897626E-2   -1.345991287969336E-1
 1.011000000000000E+10  -3.844677602799987E-2   -8.475457873614033E-2
 1.012000000000000E+10  -4.010190364237887E-2   -2.823353239595266E-2
 1.013000000000000E+10  -9.492764679308961E-4   -8.739402717821662E-3
 1.014000000000000E+10   2.129607829081960E-2   -4.354769662056251E-2
 1.015000000000000E+10  -1.209951947419843E-2   -8.544338651875177E-2
 1.016000000000000E+10  -8.653225190333240E-2   -8.668589449726646E-2
 1.017000000000000E+10  -1.504461019546742E-1   -2.806336172076506E-2
 1.018000000000000E+10  -1.688940226122638E-1    7.547361327911799E-2
 1.019000000000000E+10  -1.051676605530578E-1    1.840307863073251E-1
 1.020000000000000E+10   2.849705664285559E-2    2.324567041337630E-1
 1.021000000000000E+10   1.704238764167826E-1    1.869961601176754E-1
 1.022000000000000E+10   2.563767217425225E-1    5.836424820012841E-2
 1.023000000000000E+10   2.517658423447781E-1   -1.033189819184868E-1
 1.024000000000000E+10   1.484014666094763E-1   -2.343694416176879E-1
 1.025000000000000E+10  -1.601031119164786E-2   -2.834660170252738E-1
 1.026000000000000E+10  -1.823165882924536E-1   -2.184971384123310E-1
 1.027000000000000E+10  -2.709253782884935E-1   -5.884980763305678E-2
 1.028000000000000E+10  -2.418453981885890E-1    1.190788476066114E-1
 1.029000000000000E+10  -1.093512811958072E-1    2.341677109490834E-1
 1.030000000000000E+10   5.630999066198230E-2    2.351925287176861E-1
 1.031000000000000E+10   1.796545620958582E-1    1.324298991958345E-1
 1.032000000000000E+10   2.041824625223232E-1   -1.700373739578747E-2
 1.033000000000000E+10   1.213873541726084E-1   -1.326889588723933E-1
 1.034000000000000E+10  -8.653954498636427E-3   -1.420816410677442E-1
 1.035000000000000E+10  -8.397701191717469E-2   -5.631624357805072E-2
 1.036000000000000E+10  -6.305673086051924E-2    3.429362602151859E-2
 1.037000000000000E+10   1.661153031696747E-2    6.041513685948836E-2
 1.038000000000000E+10   8.126478302142662E-2    1.193666027143456E-2
 1.039000000000000E+10   9.045967142836867E-2   -7.462872651275505E-2
 1.040000000000000E+10   1.739852910481878E-2   -1.575097789353499E-1
 1.041000000000000E+10  -1.171359668118723E-1   -1.568515576053266E-1
 1.042000000000000E+10  -2.292606770661579E-1   -4.386728349203548E-2
 1.043000000000000E+10  -2.215548616357111E-1    1.332973892560437E-1
 1.044000000000000E+10  -9.171052282582813E-2    2.534859923315354E-1
 1.045000000000000E+10   8.741726234360564E-2    2.635041765734789E-1
 1.046000000000000E+10   2.360354196738313E-1    1.606023117612514E-1
 1.047000000000000E+10   2.888888099167423E-1   -1.149249289907919E-2
 1.048000000000000E+10   2.238070975584648E-1   -1.827543182482488E-1
 1.049000000000000E+10   6.069942645710119E-2   -2.759239476467643E-1
 1.050000000000000E+10  -1.184693890084177E-1   -2.467864500709561E-1
 1.051000000000000E+10  -2.321886824205726E-1   -1.216878586583601E-1
 1.052000000000000E+10  -2.463768383925196E-1    4.522501665669498E-2
 1.053000000000000E+10  -1.533639740817262E-1    1.802851230066675E-1
 1.054000000000000E+10  -5.457078252418454E-3    2.254110931607880E-1
 1.055000000000000E+10   1.276032175737052E-1    1.641184226338980E-1
 1.056000000000000E+10   1.755911360573479E-1    4.022360912781182E-2
 1.057000000000000E+10   1.328224328166042E-1   -7.155929352522586E-2
 1.058000000000000E+10   3.758949656890051E-2   -1.139727985266616E-1
 1.059000000000000E+10  -4.385429141767919E-2   -7.509892613904720E-2
 1.060000000000000E+10  -6.168549009146165E-2    2.250753421887615E-3
 1.061000000000000E+10  -1.553727777297199E-2    6.340063453811313E-2
 1.062000000000000E+10   5.944235748410632E-2    5.635174332653523E-2
 1.063000000000000E+10   1.005291445327756E-1   -1.490652199501012E-2
 1.064000000000000E+10   7.235724905012067E-2   -9.901821251046876E-2
 1.065000000000000E+10  -1.741333140379127E-2   -1.425586462608563E-1
 1.066000000000000E+10  -1.210342915743987E-1   -1.046796932025805E-1
 1.067000000000000E+10  -1.848584580773057E-1    2.554000398620429E-3
 1.068000000000000E+10  -1.588893446348358E-1    1.444040303359464E-1
 1.069000000000000E+10  -4.021710567804317E-2    2.401935891475150E-1
 1.070000000000000E+10   1.266290906929706E-1    2.390923819986582E-1
 1.071000000000000E+10   2.673316835646502E-1    1.205794186761780E-1
 1.072000000000000E+10   3.013046428945838E-1   -6.307326310503793E-2
 1.073000000000000E+10   2.115025919941055E-1   -2.269183176509118E-1
 1.074000000000000E+10   3.845717743820524E-2   -3.013442044399423E-1
 1.075000000000000E+10  -1.482739334561021E-1   -2.519706874983517E-1
 1.076000000000000E+10  -2.646230601913997E-1   -1.054276938610362E-1
 1.077000000000000E+10  -2.617760925487790E-1    8.458362266644037E-2
 1.078000000000000E+10  -1.345314919442887E-1    2.257111094024834E-1
 1.079000000000000E+10   4.472161838286252E-2    2.484096993123663E-1
 1.080000000000000E+10   1.938147881386459E-1    1.586164940077504E-1
 1.081000000000000E+10   2.346357749180313E-1   -5.408243471007932E-3
 1.082000000000000E+10   1.579381356918910E-1   -1.454689218254862E-1
 1.083000000000000E+10   1.393170070230698E-2   -1.881958346141637E-1
 1.084000000000000E+10  -1.028027285395153E-1   -1.116631886785662E-1
 1.085000000000000E+10  -1.113471575358496E-1    3.094458451797348E-3
 1.086000000000000E+10  -4.195779974966777E-2    7.818669813091993E-2
 1.087000000000000E+10   4.639612141620061E-2    6.579782170450620E-2
 1.088000000000000E+10   8.227286500706309E-2   -4.542487941689584E-3
 1.089000000000000E+10   4.920240016738376E-2   -7.392074434897941E-2
 1.090000000000000E+10  -3.131657181660135E-2   -9.728226644530999E-2
 1.091000000000000E+10  -9.933826934525798E-2   -4.456977169508256E-2
 1.092000000000000E+10  -1.089870765084489E-1    4.816816445380252E-2
 1.093000000000000E+10  -5.259916683998206E-2    1.293467505080437E-1
 1.094000000000000E+10   4.949314526993527E-2    1.573357254404625E-1
 1.095000000000000E+10   1.481968842945881E-1    1.094162567861085E-1
 1.096000000000000E+10   2.033082322515226E-1   -2.968322331460698E-3
 1.097000000000000E+10   1.704173380857781E-1   -1.305782902595383E-1
 1.098000000000000E+10   5.963632201947893E-2   -2.113578247354089E-1
 1.099000000000000E+10  -8.179216255914463E-2   -1.995149209311107E-1
 1.100000000000000E+10  -1.803559591859681E-1   -9.511542841395194E-2
 1.101000000000000E+10  -1.948953629571701E-1    4.441980104054017E-2
 1.102000000000000E+10  -1.157052905114650E-1    1.578286963962801E-1
 1.103000000000000E+10   1.721796664290515E-2    1.949009014118334E-1
 1.104000000000000E+10   1.396907002211087E-1    1.332194909329329E-1
 1.105000000000000E+10   1.953799340008777E-1    1.131374453158920E-2
 1.106000000000000E+10   1.494851176642522E-1   -1.148366877962852E-1
 1.107000000000000E+10   2.914593996206820E-2   -1.732553315372171E-1
 1.108000000000000E+10  -9.724442423443640E-2   -1.297898602730854E-1
 1.109000000000000E+10  -1.561469454715912E-1   -1.456302018308423E-2
 1.110000000000000E+10  -1.145189746258346E-1    1.081352398436892E-1
 1.111000000000000E+10   7.365874425565839E-3    1.668321070141875E-1
 1.112000000000000E+10   1.372855571750450E-1    1.249489966295605E-1
 1.113000000000000E+10   1.954445816379748E-1    7.786200310325015E-4
 1.114000000000000E+10   1.475593302802206E-1   -1.249974231867132E-1
 1.115000000000000E+10   2.578262682461308E-2   -1.922374288599821E-1
 1.116000000000000E+10  -1.116980458225277E-1   -1.603969842801230E-1
 1.117000000000000E+10  -1.940516735665442E-1   -4.003819117500910E-2
 1.118000000000000E+10  -1.686932443192506E-1    1.151118397246459E-1
 1.119000000000000E+10  -3.703104799415576E-2    2.115977938257329E-1
 1.120000000000000E+10   1.228350803548224E-1    1.855472622016708E-1
 1.121000000000000E+10   2.132577046306010E-1    6.021490198037139E-2
 1.122000000000000E+10   1.972181437812112E-1   -9.534156784469910E-2
 1.123000000000000E+10   7.998605514462033E-2   -1.930169622499346E-1
 1.124000000000000E+10  -6.815730381681925E-2   -1.853259904527935E-1
 1.125000000000000E+10  -1.694621860535740E-1   -7.629817842852256E-2
 1.126000000000000E+10  -1.656754930810950E-1    7.410731643615855E-2
 1.127000000000000E+10  -6.582074310575690E-2    1.731291539712634E-1
 1.128000000000000E+10   7.400356554362721E-2    1.751631326896539E-1
 1.129000000000000E+10   1.698864862417463E-1    8.010947373493026E-2
 1.130000000000000E+10   1.751775258428157E-1   -4.951494523093933E-2
 1.131000000000000E+10   9.821327775011222E-2   -1.435042648597410E-1
 1.132000000000000E+10  -2.525613311160866E-2   -1.527924976053792E-1
 1.133000000000000E+10  -1.219851045769702E-1   -7.575698376571528E-2
 1.134000000000000E+10  -1.421520779087433E-1    4.960899821715467E-2
 1.135000000000000E+10  -6.747179694370567E-2    1.473935726580767E-1
 1.136000000000000E+10   5.573475419291118E-2    1.654884536310300E-1
 1.137000000000000E+10   1.651219968079789E-1    9.420446125274098E-2
 1.138000000000000E+10   1.926568498986723E-1   -3.410302130017084E-2
 1.139000000000000E+10   1.267679581457082E-1   -1.471750341518968E-1
 1.140000000000000E+10  -6.429298483654717E-3   -1.802993971851648E-1
 1.141000000000000E+10  -1.257214985768863E-1   -1.159995917925851E-1
 1.142000000000000E+10  -1.644789102177704E-1    1.308476612932140E-2
 1.143000000000000E+10  -9.948544793179456E-2    1.290034379132727E-1
 1.144000000000000E+10   1.816118644693032E-2    1.680481636212935E-1
 1.145000000000000E+10   1.372150487404296E-1    1.209731222957132E-1
 1.146000000000000E+10   1.843053379104152E-1    8.332985941552204E-3
 1.147000000000000E+10   1.442167505534225E-1   -1.106657685093234E-1
 1.148000000000000E+10   2.853011590093463E-2   -1.723311326276428E-1
 1.149000000000000E+10  -9.685053873689486E-2   -1.341961373772617E-1
 1.150000000000000E+10  -1.584449341293553E-1   -2.345627718650554E-2
 1.151000000000000E+10  -1.195995652956498E-1    1.093079861982980E-1
 1.152000000000000E+10  -2.542518660744023E-3    1.759805158106300E-1
 1.153000000000000E+10   1.247765012219530E-1    1.445303740434536E-1
 1.154000000000000E+10   1.932914147582700E-1    2.648265943803445E-2
 1.155000000000000E+10   1.557013417491820E-1   -1.056514524594587E-1
 1.156000000000000E+10   4.583935318283764E-2   -1.794820914983468E-1
 1.157000000000000E+10  -8.597495935583359E-2   -1.532553890250121E-1
 1.158000000000000E+10  -1.625141800294998E-1   -4.584775101200419E-2
 1.159000000000000E+10  -1.541285997567591E-1    8.590262301441197E-2
 1.160000000000000E+10  -5.690626740023102E-2    1.810247054579939E-1
 1.161000000000000E+10   7.870452336776128E-2    1.858401618936956E-1
 1.162000000000000E+10   1.844175033702243E-1    9.706472797463619E-2
 1.163000000000000E+10   2.082031344147692E-1   -3.914675088417811E-2
 1.164000000000000E+10   1.330926358619394E-1   -1.541128217372113E-1
 1.165000000000000E+10   2.839446462779145E-3   -1.886054636667747E-1
 1.166000000000000E+10  -1.217479637329462E-1   -1.234033396203450E-1
 1.167000000000000E+10  -1.647803628010568E-1    4.698779234726276E-3
 1.168000000000000E+10  -1.083987159198202E-1    1.205132310506854E-1
 1.169000000000000E+10   1.590723335255397E-2    1.592781497632926E-1
 1.170000000000000E+10   1.275636518588846E-1    9.368184587102750E-2
 1.171000000000000E+10   1.548950485968988E-1   -1.836320477528944E-2
 1.172000000000000E+10   8.970154813608297E-2   -1.138358438989752E-1
 1.173000000000000E+10  -2.839317687988127E-2   -1.319590034696832E-1
 1.174000000000000E+10  -1.272951352150694E-1   -5.733173456513255E-2
 1.175000000000000E+10  -1.437050698934173E-1    6.784170921857147E-2
 1.176000000000000E+10  -4.856909804905123E-2    1.727358648557301E-1
 1.177000000000000E+10   9.774339108670412E-2    1.773357821279543E-1
 1.178000000000000E+10   2.059680247137679E-1    7.425153947466624E-2
 1.179000000000000E+10   2.128983351869786E-1   -7.834164966108897E-2
 1.180000000000000E+10   1.079961250039941E-1   -1.948278932775502E-1
 1.181000000000000E+10  -4.740807281959089E-2   -2.170579627706894E-1
 1.182000000000000E+10  -1.815999533099239E-1   -1.313328727301046E-1
 1.183000000000000E+10  -2.277084428888073E-1    2.684125325208126E-2
 1.184000000000000E+10  -1.621132843902561E-1    1.761570890824208E-1
 1.185000000000000E+10  -1.583900959674876E-2    2.565677650092973E-1
 1.186000000000000E+10   1.419788788200927E-1    2.252573463710430E-1
 1.187000000000000E+10   2.499629566481428E-1    1.041488037690127E-1
 1.188000000000000E+10   2.646177499755723E-1   -6.282649259506404E-2
 1.189000000000000E+10   1.704559753726214E-1   -2.023423346964627E-1
 1.190000000000000E+10   1.436271836709532E-2   -2.499703092376577E-1
 1.191000000000000E+10  -1.356392262196175E-1   -1.788935126743926E-1
 1.192000000000000E+10  -1.988571655143777E-1   -3.526519207438181E-2
 1.193000000000000E+10  -1.545149196923772E-1    9.922259503399070E-2
 1.194000000000000E+10  -4.763153632724942E-2    1.691104868610892E-1
 1.195000000000000E+10   7.296211838544632E-2    1.433649154551867E-1
 1.196000000000000E+10   1.426109326691245E-1    5.298230699593260E-2
 1.197000000000000E+10   1.243138574976575E-1   -5.459478981821277E-2
 1.198000000000000E+10   3.669972376185934E-2   -1.042709143404237E-1
 1.199000000000000E+10  -4.907783759928921E-2   -6.700474341134703E-2
 1.200000000000000E+10  -7.590525488969008E-2    1.379986833194707E-2
 1.201000000000000E+10  -2.396421533805546E-2    7.814617198600270E-2
 1.202000000000000E+10   5.889681322780550E-2    8.328780234331100E-2
 1.203000000000000E+10   1.240418921651953E-1    1.999774383214075E-2
 1.204000000000000E+10   1.209524877014264E-1   -8.085846064032247E-2
 1.205000000000000E+10   3.735808167998182E-2   -1.514704542525374E-1
 1.206000000000000E+10  -8.526761305483321E-2   -1.470517222194261E-1
 1.207000000000000E+10  -1.749888170016158E-1   -5.585964144230933E-2
 1.208000000000000E+10  -1.811346145966968E-1    7.408169617476924E-2
 1.209000000000000E+10  -9.501319722317608E-2    1.815847142807003E-1
 1.210000000000000E+10   4.475872748936043E-2    2.098933264801850E-1
 1.211000000000000E+10   1.690999746987934E-1    1.495495743502359E-1
 1.212000000000000E+10   2.257008771703783E-1    1.789556660631377E-2
 1.213000000000000E+10   1.837827957101385E-1   -1.209575531172288E-1
 1.214000000000000E+10   6.438206310378378E-2   -2.053569685573549E-1
 1.215000000000000E+10  -7.954977422482273E-2   -1.992230057053982E-1
 1.216000000000000E+10  -1.906362097616783E-1   -9.747503926188832E-2
 1.217000000000000E+10  -2.090960802392400E-1    5.927707633521855E-2
 1.218000000000000E+10  -1.145876281904141E-1    1.923918621684231E-1
 1.219000000000000E+10   4.815919818676517E-2    2.223256192193044E-1
 1.220000000000000E+10   1.769539774923086E-1    1.317741509843126E-1
 1.221000000000000E+10   2.082083298614791E-1   -2.305651330663724E-2
 1.222000000000000E+10   1.289238306613384E-1   -1.468541001302518E-1
 1.223000000000000E+10  -7.712454505096296E-3   -1.767076045789167E-1
 1.224000000000000E+10  -1.234690906153903E-1   -1.011385047826093E-1
 1.225000000000000E+10  -1.450674709726956E-1    3.310400837382714E-2
 1.226000000000000E+10  -6.487600191043710E-2    1.325272466215623E-1
 1.227000000000000E+10   5.969823907409747E-2    1.374574483305498E-1
 1.228000000000000E+10   1.504162356991676E-1    4.735342840748598E-2
 1.229000000000000E+10   1.466678344669781E-1   -8.002561311747264E-2
 1.230000000000000E+10   5.540819015249719E-2   -1.682298298253641E-1
 1.231000000000000E+10  -8.344238971704139E-2   -1.629771289718566E-1
 1.232000000000000E+10  -1.807261136360914E-1   -5.992812642291391E-2
 1.233000000000000E+10  -1.804938654922294E-1    8.488315928763221E-2
 1.234000000000000E+10  -7.748586888933019E-2    1.878453630820925E-1
 1.235000000000000E+10   6.469057183552890E-2    1.916278609210378E-1
 1.236000000000000E+10   1.777016885051115E-1    1.110837152228087E-1
 1.237000000000000E+10   2.113408899786973E-1   -2.601638391532647E-2
 1.238000000000000E+10   1.501013659830157E-1   -1.558918285865247E-1
 1.239000000000000E+10   1.574294396616030E-2   -2.201499393655185E-1
 1.240000000000000E+10  -1.301973408618755E-1   -1.765159534413971E-1
 1.241000000000000E+10  -2.069945042546764E-1   -5.653704815479679E-2
 1.242000000000000E+10  -1.920052670142850E-1    8.868830396668351E-2
 1.243000000000000E+10  -8.739345840334724E-2    1.823400168602496E-1
 1.244000000000000E+10   4.546542367735357E-2    1.911714372972394E-1
 1.245000000000000E+10   1.502440477802724E-1    1.086773838085839E-1
 1.246000000000000E+10   1.665916829919475E-1   -2.285370039982621E-2
 1.247000000000000E+10   9.568086310739940E-2   -1.267651358040065E-1
 1.248000000000000E+10  -2.119938087198043E-2   -1.476285360492869E-1
 1.249000000000000E+10  -1.083739772007465E-1   -8.338922240988224E-2
 1.250000000000000E+10  -1.257167015119452E-1    2.094475056855161E-2
