#  HZ   S   RI   R     50.00 
! Rohde & Schwarz Vector Network Analyzer 
! Rohde-Schwarz,ZNA43-4Port,1332450044101932,2.92
! Created: UTC 6/9/2026, 6:47:54 AM
! freq[Hz]                re:S11                  im:S11
 8.000000000000000E9    -1.841242287452960E-1   -1.863571398596057E-1
 8.010000000000000E9    -2.131768685163919E-1   -5.150616680223556E-2
 8.020000000000000E9    -1.946611120005225E-1    3.329021172469281E-2
 8.030000000000000E9    -1.725575777315206E-1    1.120912176060900E-1
 8.040000000000000E9    -1.053371423059623E-1    2.065277077092282E-1
 8.050000000000000E9     3.835540112485306E-2    2.580296538535901E-1
 8.060000000000000E9     1.596536518149165E-1    1.798523429428911E-1
 8.070000000000000E9     2.083225151405233E-1    7.795824198777503E-2
 8.080000000000000E9     2.056961389644708E-1   -1.063803225548695E-2
 8.090000000000000E9     2.060460083286827E-1   -8.496495723716903E-2
 8.100000000000000E9     1.547802465974039E-1   -1.923568818048650E-1
 8.110000000000000E9     2.252467856071514E-2   -2.613180505031236E-1
 8.120000000000000E9    -1.316094108546756E-1   -2.150138466647184E-1
 8.130000000000000E9    -2.024655627112301E-1   -8.889026519288619E-2
 8.140000000000000E9    -2.105154068918851E-1    6.742624108798038E-3
 8.150000000000000E9    -1.823667191468209E-1    8.356444530389871E-2
 8.160000000000000E9    -1.364522692733281E-1    2.050197151890710E-1
 8.170000000000000E9    -8.016069761108730E-4    2.805116314859056E-1
 8.180000000000000E9     1.613453282864929E-1    2.227860447996562E-1
 8.190000000000000E9     2.385294898950620E-1    9.765864846871425E-2
 8.200000000000000E9     2.278314166874238E-1   -4.611785476885192E-3
 8.210000000000000E9     2.038808669031872E-1   -1.064938877371877E-1
 8.220000000000000E9     1.547678538883283E-1   -1.981565269726337E-1
 8.230000000000000E9     2.558773839437013E-2   -2.594327796698384E-1
 8.240000000000000E9    -1.400516176449959E-1   -2.107131600902324E-1
 8.250000000000000E9    -2.147487766632374E-1   -7.587181296582114E-2
 8.260000000000000E9    -1.970203712016479E-1    4.386126922699879E-2
 8.270000000000000E9    -1.447825334882494E-1    1.222220536042206E-1
 8.280000000000000E9    -9.142026963159156E-2    1.813077170458268E-1
 8.290000000000000E9     2.251766310185113E-2    2.276568474738679E-1
 8.300000000000000E9     1.716128735955554E-1    1.903177664212000E-1
 8.310000000000000E9     2.331547947747727E-1    5.446888193857346E-2
 8.320000000000000E9     1.804539559019734E-1   -6.950651060855928E-2
 8.330000000000000E9     1.291655620151791E-1   -1.125981322254461E-1
 8.340000000000000E9     8.011561011014771E-2   -1.424529458851173E-1
 8.350000000000000E9    -6.029810943742815E-3   -1.823229559673572E-1
 8.360000000000000E9    -1.204945947346641E-1   -1.447556062652346E-1
 8.370000000000000E9    -1.647944821963157E-1   -1.493572257578201E-2
 8.380000000000000E9    -1.205823297320127E-1    9.181221096178728E-2
 8.390000000000000E9    -5.600200326313726E-2    9.861861666485719E-2
 8.400000000000000E9    -1.308477333340885E-2    1.150018422156930E-1
 8.410000000000000E9     4.235519572102998E-2    1.384455987545637E-1
 8.420000000000000E9     1.197403120989960E-1    1.139301023673898E-1
 8.430000000000000E9     1.842654608872853E-1    1.291556220347823E-2
 8.440000000000000E9     1.341302825101783E-1   -7.571721606950621E-2
 8.450000000000000E9     6.432934042649414E-2   -8.439296286221032E-2
 8.460000000000000E9     3.553463616177747E-2   -8.393761448995801E-2
 8.470000000000000E9     1.530706273981589E-2   -1.116443130470237E-1
 8.480000000000000E9    -6.185850040610845E-2   -1.032513135087673E-1
 8.490000000000000E9    -1.136322233377484E-1   -2.224535313845612E-2
 8.500000000000000E9    -8.007843875193629E-2    5.381331906510611E-2
 8.510000000000000E9    -1.680511940666001E-2    7.468410457092189E-2
 8.520000000000000E9     7.485280932982645E-3    6.060449807036452E-2
 8.530000000000000E9     7.495372953951953E-3    6.471778467696240E-2
 8.540000000000000E9     5.571999579838176E-2    7.585574394264753E-2
 8.550000000000000E9     1.246833728626705E-1    3.129308585290084E-2
 8.560000000000000E9     1.014832674201257E-1   -4.428753112919455E-2
 8.570000000000000E9     2.664475971868390E-2   -6.940833216092372E-2
 8.580000000000000E9     1.432727001282509E-2   -3.182131756702734E-2
 8.590000000000000E9     2.336765168898653E-2   -3.172438076426062E-2
 8.600000000000000E9    -1.712088360473409E-2   -6.254530270773220E-2
 8.610000000000000E9    -6.148146223586821E-2   -3.087672194092231E-2
 8.620000000000000E9    -4.677924068065584E-2    5.702245830496267E-2
 8.630000000000000E9     2.495971818531491E-2    7.798627156576499E-2
 8.640000000000000E9     6.057396583099835E-2    2.138003967139271E-2
 8.650000000000000E9     2.755848724182563E-2    5.388045322237921E-3
 8.660000000000000E9     4.443634796737018E-2    2.534403232731219E-2
 8.670000000000000E9     7.412723375110498E-2   -7.637651886694924E-3
 8.680000000000000E9     5.699681983580018E-2   -7.086377839258333E-2
 8.690000000000000E9    -1.350660193368924E-2   -6.728013920953173E-2
 8.700000000000000E9    -3.275894455437342E-2   -8.807029539268615E-3
 8.710000000000000E9    -1.539875545014644E-2    1.770059315619240E-2
 8.720000000000000E9     8.249330405262071E-3    1.382168702447659E-3
 8.730000000000000E9    -5.276762671372858E-3    7.744552594051563E-3
 8.740000000000000E9    -3.417744125962650E-3    3.549977427308443E-2
 8.750000000000000E9     3.817182632219546E-2    4.043394663817431E-2
 8.760000000000000E9     7.879917792953792E-2   -5.857332715736795E-3
 8.770000000000000E9     3.605156230841869E-2   -4.473674906016574E-2
 8.780000000000000E9    -1.926281550752441E-2   -3.332914005847525E-2
 8.790000000000000E9    -1.148856634323584E-2    2.091381485696217E-3
 8.800000000000000E9     1.032906373496195E-2   -5.307336284491039E-3
 8.810000000000000E9    -1.675085709626785E-2   -1.621383057102528E-2
 8.820000000000000E9    -4.774703246408259E-2    1.529629070800996E-2
 8.830000000000000E9     1.642156290464615E-3    7.995988144979910E-2
 8.840000000000000E9     6.673465672486498E-2    5.214363261236255E-2
 8.850000000000000E9     4.719368223754153E-2   -1.128532148580935E-2
 8.860000000000000E9     1.339888245314955E-2   -5.881291689256957E-3
 8.870000000000000E9     3.901041329301502E-2    2.584157401688844E-2
 8.880000000000000E9     6.320469994070936E-2   -9.928246694216011E-3
 8.890000000000000E9     3.432431335883070E-2   -5.031394943397143E-2
 8.900000000000000E9    -5.864078135021281E-3   -3.826354051386813E-2
 8.910000000000000E9    -2.451997857890469E-3    5.745653895400958E-3
 8.920000000000000E9     2.192617697985067E-2   -1.079194805207139E-2
 8.930000000000000E9     5.110455131199854E-3   -4.602141055091179E-2
 8.940000000000000E9    -3.153307430160253E-2   -3.683935460704942E-2
 8.950000000000000E9    -5.506987976803254E-2    2.716611508655775E-2
 8.960000000000000E9    -1.409085368016074E-2    4.352614228082786E-2
 8.970000000000000E9     4.183595076392529E-3    3.144490137508832E-2
 8.980000000000000E9    -5.560820457514398E-3    4.085120646684275E-2
 8.990000000000000E9     8.509269163402588E-3    8.080072432961456E-2
 9.000000000000000E9     8.293893022614358E-2    5.913073026596176E-2
 9.010000000000000E9     1.244703285078075E-1    4.116527905697416E-3
 9.020000000000000E9     8.783358180539486E-2   -6.348177592979419E-2
 9.030000000000000E9     3.127243512103922E-2   -7.640641630253292E-2
 9.040000000000000E9     1.325277469154586E-2   -7.449543012423569E-2
 9.050000000000000E9    -1.874256039095768E-2   -8.931154807993746E-2
 9.060000000000000E9    -1.025792392219958E-1   -7.985502554932926E-2
 9.070000000000000E9    -1.431843737108267E-1    1.953619329682844E-2
 9.080000000000000E9    -8.899918761138471E-2    1.180743373387323E-1
 9.090000000000000E9     5.335749168529292E-4    1.472176486541588E-1
 9.100000000000000E9     5.800520962804773E-2    1.151325786200354E-1
 9.110000000000000E9     9.664762062852793E-2    9.665278988480290E-2
 9.120000000000000E9     1.592081726067420E-1    5.826251465282674E-2
 9.130000000000000E9     1.915636526322424E-1   -4.520986312241460E-2
 9.140000000000000E9     1.218029429380431E-1   -1.750512927525112E-1
 9.150000000000000E9    -8.457287529301803E-3   -1.869066059435721E-1
 9.160000000000000E9    -8.790781299789628E-2   -1.254044486347467E-1
 9.170000000000000E9    -1.281912800013115E-1   -7.160873788158482E-2
 9.180000000000000E9    -1.701030461218090E-1   -2.288781614439600E-2
 9.190000000000000E9    -1.796771309513667E-1    9.595229839776674E-2
 9.200000000000000E9    -9.814919962883278E-2    1.984131244248419E-1
 9.210000000000000E9     4.338710410747283E-2    2.151399652102292E-1
 9.220000000000000E9     1.410506254617742E-1    1.444494078136033E-1
 9.230000000000000E9     1.764888674110185E-1    6.532222908249435E-2
 9.240000000000000E9     1.721903474903605E-1   -1.015823965812160E-2
 9.250000000000000E9     1.685087647070433E-1   -8.978184437569584E-2
 9.260000000000000E9     1.024351710953883E-1   -1.868524679756964E-1
 9.270000000000000E9    -2.917444401562794E-2   -2.015843412795363E-1
 9.280000000000000E9    -1.417631300433830E-1   -1.345463361479561E-1
 9.290000000000000E9    -1.539216870856553E-1   -2.372502271848827E-2
 9.300000000000000E9    -1.326140277631364E-1    3.590596412403230E-2
 9.310000000000000E9    -1.221259672018037E-1    8.657496202994124E-2
 9.320000000000000E9    -8.734731370831150E-2    1.579563493295025E-1
 9.330000000000000E9     3.478115984709352E-2    2.086883806279054E-1
 9.340000000000000E9     1.541542521306072E-1    1.375830775832282E-1
 9.350000000000000E9     1.705151599226191E-1    2.410762043369373E-2
 9.360000000000000E9     1.385623796484338E-1   -2.189107523975526E-2
 9.370000000000000E9     1.388498218702180E-1   -5.871590316321598E-2
 9.380000000000000E9     1.040225461420358E-1   -1.431556412556060E-1
 9.390000000000000E9    -4.810629529910114E-3   -1.991485644649869E-1
 9.400000000000000E9    -1.105280222986331E-1   -1.512799713002979E-1
 9.410000000000000E9    -1.595271807069358E-1   -4.772784334618200E-2
 9.420000000000000E9    -1.423934828453033E-1    1.634141964698537E-2
 9.430000000000000E9    -1.299982565615078E-1    6.715389526749141E-2
 9.440000000000000E9    -1.101763292700006E-1    1.383819590182348E-1
 9.450000000000000E9    -2.695478957013436E-2    2.109105025192519E-1
 9.460000000000000E9     1.124335185753988E-1    1.870171100283025E-1
 9.470000000000000E9     1.825948976996636E-1    8.757582458288093E-2
 9.480000000000000E9     1.754273545363258E-1   -5.691421901207011E-3
 9.490000000000000E9     1.554911261028400E-1   -6.296221550023463E-2
 9.500000000000000E9     1.298376402616945E-1   -1.309397407952640E-1
 9.510000000000000E9     4.792562854138496E-2   -2.043920995092009E-1
 9.520000000000000E9    -9.321181828186105E-2   -2.107274644187504E-1
 9.530000000000000E9    -1.924451327167787E-1   -1.092567081654792E-1
 9.540000000000000E9    -1.904291842137348E-1    7.122010088490188E-3
 9.550000000000000E9    -1.526408085051693E-1    8.299014826301472E-2
 9.560000000000000E9    -1.296423742025009E-1    1.316086548898942E-1
 9.570000000000000E9    -5.923579065281855E-2    2.109046336445366E-1
 9.580000000000000E9     7.714948486597072E-2    2.208004691649298E-1
 9.590000000000000E9     1.885617821091589E-1    1.307872078078280E-1
 9.600000000000000E9     1.987792233647065E-1   -1.778322309545491E-3
 9.610000000000000E9     1.515859929443089E-1   -7.615159938791380E-2
 9.620000000000000E9     1.090847628619406E-1   -1.048580730341045E-1
 9.630000000000000E9     6.239385303464153E-2   -1.705325073363946E-1
 9.640000000000000E9    -4.827279641526382E-2   -1.951727931138077E-1
 9.650000000000000E9    -1.678779454367563E-1   -1.195536376245714E-1
 9.660000000000000E9    -1.795066154952150E-1    7.450667437499763E-3
 9.670000000000000E9    -1.260789063050100E-1    7.105090177472378E-2
 9.680000000000000E9    -9.682081364805392E-2    9.849243421892497E-2
 9.690000000000000E9    -6.494347324212857E-2    1.561383038901311E-1
 9.700000000000000E9     2.856110202286771E-2    1.895713227832802E-1
 9.710000000000000E9     1.251873897182416E-1    1.494406466464905E-1
 9.720000000000000E9     1.812250379427543E-1    4.650168065397743E-2
 9.730000000000000E9     1.548341664526690E-1   -3.891496889855848E-2
 9.740000000000000E9     1.145498542394214E-1   -7.584544109508821E-2
 9.750000000000000E9     9.650264487653872E-2   -1.128884695613870E-1
 9.760000000000000E9     3.570191937439406E-2   -1.713943427763854E-1
 9.770000000000000E9    -8.696276794200139E-2   -1.761254697996391E-1
 9.780000000000000E9    -1.713027435437763E-1   -8.609733844313038E-2
 9.790000000000000E9    -1.681741868835278E-1    1.774411931702270E-2
 9.800000000000000E9    -1.292749749225254E-1    7.299629761630891E-2
 9.810000000000000E9    -1.126784999355371E-1    1.140794887793304E-1
 9.820000000000000E9    -5.709010645781087E-2    1.904197232670487E-1
 9.830000000000000E9     6.838381815907957E-2    2.225759706175170E-1
 9.840000000000000E9     1.894628060945802E-1    1.350516196540603E-1
 9.850000000000000E9     2.079844135376321E-1    2.439328450495625E-3
 9.860000000000000E9     1.653081927041667E-1   -6.967068766199419E-2
 9.870000000000000E9     1.393696545474604E-1   -1.292748991073126E-1
 9.880000000000000E9     7.697651977547164E-2   -2.068025156484166E-1
 9.890000000000000E9    -5.932814993569889E-2   -2.343773350056748E-1
 9.900000000000000E9    -1.917863619822722E-1   -1.489067422650232E-1
 9.910000000000000E9    -2.332553017947318E-1   -2.166201221302608E-2
 9.920000000000000E9    -1.874038012846367E-1    9.336142370309210E-2
 9.930000000000000E9    -1.255063738370111E-1    1.538260489481219E-1
 9.940000000000000E9    -5.091530095726508E-2    2.040491188032343E-1
 9.950000000000000E9     6.076949069283225E-2    2.282969266888252E-1
 9.960000000000000E9     1.951437894863752E-1    1.654532872574080E-1
 9.970000000000000E9     2.504913046040647E-1    2.202056194866129E-2
 9.980000000000000E9     1.989704660304407E-1   -1.129026288699207E-1
 9.990000000000000E9     1.110614494392019E-1   -1.689226230594441E-1
 1.000000000000000E+10   3.914127200292981E-2   -1.937953669310595E-1
 1.001000000000000E+10  -5.659160837635775E-2   -2.074564491383848E-1
 1.002000000000000E+10  -1.765925034348691E-1   -1.617526591380941E-1
 1.003000000000000E+10  -2.442245452144191E-1   -2.493704521402105E-2
 1.004000000000000E+10  -2.025751934902482E-1    1.263518587511969E-1
 1.005000000000000E+10  -8.710670966069457E-2    1.742592863064802E-1
 1.006000000000000E+10  -1.011868841623140E-2    1.728744313367471E-1
 1.007000000000000E+10   5.191254641306826E-2    1.800291031899726E-1
 1.008000000000000E+10   1.521557928901360E-1    1.550284871844162E-1
 1.009000000000000E+10   2.286892692267897E-1    2.859126041714311E-2
 1.010000000000000E+10   1.876854704591782E-1   -1.024899457803559E-1
 1.011000000000000E+10   7.709859060727249E-2   -1.658843610173152E-1
 1.012000000000000E+10   7.272158292087890E-3   -1.484177161345549E-1
 1.013000000000000E+10  -3.294862468008598E-2   -1.423429077005370E-1
 1.014000000000000E+10  -1.122593631820109E-1   -1.333888059365115E-1
 1.015000000000000E+10  -1.909829296591587E-1   -4.642592738715576E-2
 1.016000000000000E+10  -1.713736899165194E-1    8.426199564972010E-2
 1.017000000000000E+10  -7.155863027513086E-2    1.410492942722641E-1
 1.018000000000000E+10  -1.170232596567695E-2    1.253714214135382E-1
 1.019000000000000E+10   2.221164190358966E-2    1.097208900804654E-1
 1.020000000000000E+10   7.673604753683214E-2    1.208532250685037E-1
 1.021000000000000E+10   1.468624289673902E-1    6.642328863100316E-2
 1.022000000000000E+10   1.611939777722324E-1   -3.184362556538844E-2
 1.023000000000000E+10   9.568741546657850E-2   -1.160140650551360E-1
 1.024000000000000E+10   2.497242818626495E-2   -1.127009829944373E-1
 1.025000000000000E+10  -1.113889633828022E-2   -9.579364786745029E-2
 1.026000000000000E+10  -3.183567440427663E-2   -1.093621893865806E-1
 1.027000000000000E+10  -1.006757526507209E-1   -9.373699896035906E-2
 1.028000000000000E+10  -1.548927234299249E-1   -1.689897748382854E-3
 1.029000000000000E+10  -1.137105546529613E-1    9.602995116765042E-2
 1.030000000000000E+10  -2.428862261705777E-2    1.101690739082734E-1
 1.031000000000000E+10   1.386425141457479E-2    8.554040910770605E-2
 1.032000000000000E+10   1.930826679096630E-2    9.222466685912900E-2
 1.033000000000000E+10   8.892746228726404E-2    9.947015156224973E-2
 1.034000000000000E+10   1.674988027656454E-1    2.390507372787189E-2
 1.035000000000000E+10   1.350598289920590E-1   -8.995381571217741E-2
 1.036000000000000E+10   4.030985071214570E-2   -1.238884716012585E-1
 1.037000000000000E+10  -3.937456833603951E-3   -1.022433302599504E-1
 1.038000000000000E+10  -1.649774762245051E-2   -1.026193793432787E-1
 1.039000000000000E+10  -8.310731480000204E-2   -1.167566057578951E-1
 1.040000000000000E+10  -1.558477991137678E-1   -4.872575327736512E-2
 1.041000000000000E+10  -1.473980132141326E-1    6.240832124089987E-2
 1.042000000000000E+10  -7.220470091634604E-2    1.254152601022266E-1
 1.043000000000000E+10  -2.732078956567962E-3    1.139199146354433E-1
 1.044000000000000E+10   1.788256962917428E-2    9.353486599925882E-2
 1.045000000000000E+10   6.626456672434018E-2    1.029255310931570E-1
 1.046000000000000E+10   1.318396841356937E-1    6.634838477243470E-2
 1.047000000000000E+10   1.568121225385805E-1   -3.925309131441767E-2
 1.048000000000000E+10   8.577157063971229E-2   -1.181998698650020E-1
 1.049000000000000E+10   4.771744181654678E-3   -1.079716011181775E-1
 1.050000000000000E+10  -2.931368059801957E-2   -7.738353267540821E-2
 1.051000000000000E+10  -4.506070304070611E-2   -8.480962768017648E-2
 1.052000000000000E+10  -9.383572101147189E-2   -6.198644622139012E-2
 1.053000000000000E+10  -1.370959515551204E-1    1.156413636940877E-2
 1.054000000000000E+10  -8.942758852736885E-2    1.076615595861147E-1
 1.055000000000000E+10   5.171470242093090E-3    1.206217016231410E-1
 1.056000000000000E+10   3.602351975812934E-2    7.403368115511752E-2
 1.057000000000000E+10   3.685622071640951E-2    6.968958208090778E-2
 1.058000000000000E+10   8.286318371754726E-2    7.251233358007024E-2
 1.059000000000000E+10   1.426326679904291E-1    1.640953325243230E-2
 1.060000000000000E+10   1.209073831212541E-1   -8.004274683159451E-2
 1.061000000000000E+10   3.613457793784922E-2   -1.192450933130590E-1
 1.062000000000000E+10  -2.652926305538832E-2   -7.733414270720917E-2
 1.063000000000000E+10  -2.106125518046474E-2   -6.120010452385433E-2
 1.064000000000000E+10  -5.064874248546245E-2   -7.347859755803733E-2
 1.065000000000000E+10  -1.220141720769219E-1   -4.072652087230638E-2
 1.066000000000000E+10  -1.232067875527578E-1    7.267150936667162E-2
 1.067000000000000E+10  -3.541077965721923E-2    1.349334087680156E-1
 1.068000000000000E+10   3.651081484534672E-2    1.055606700087653E-1
 1.069000000000000E+10   4.623677603213311E-2    7.824967725993336E-2
 1.070000000000000E+10   8.089477968232590E-2    8.481949592364232E-2
 1.071000000000000E+10   1.465104435836349E-1    4.644492728140550E-2
 1.072000000000000E+10   1.707648158841312E-1   -6.005564207442465E-2
 1.073000000000000E+10   1.001271378807088E-1   -1.404509834791921E-1
 1.074000000000000E+10  -1.434006993523185E-3   -1.475285874424100E-1
 1.075000000000000E+10  -4.994950139969122E-2   -9.518837213804118E-2
 1.076000000000000E+10  -6.620305367439740E-2   -7.817344558508926E-2
 1.077000000000000E+10  -1.115857283940719E-1   -5.026961907309364E-2
 1.078000000000000E+10  -1.354142816560372E-1    3.615150729631523E-2
 1.079000000000000E+10  -7.213106766026171E-2    1.284434374746345E-1
 1.080000000000000E+10   3.725929831445541E-2    1.369039730918891E-1
 1.081000000000000E+10   9.537356578179461E-2    7.258442457612978E-2
 1.082000000000000E+10   9.214929961599456E-2    2.033301855973765E-2
 1.083000000000000E+10   9.611449086395339E-2    4.105578781793215E-3
 1.084000000000000E+10   1.212741531674934E-1   -4.738890442073833E-2
 1.085000000000000E+10   8.431811139391715E-2   -1.367362571676994E-1
 1.086000000000000E+10  -3.245918772627629E-2   -1.537537318062810E-1
 1.087000000000000E+10  -1.025826184356573E-1   -6.957556154937233E-2
 1.088000000000000E+10  -8.175570601360906E-2    5.058517525650564E-3
 1.089000000000000E+10  -6.008366630200297E-2    1.702793184841587E-2
 1.090000000000000E+10  -7.244711640159450E-2    3.972852864701660E-2
 1.091000000000000E+10  -4.091836122722699E-2    1.029996447241333E-1
 1.092000000000000E+10   5.450631415058566E-2    1.220276153150857E-1
 1.093000000000000E+10   1.203935363699441E-1    5.419101190688941E-2
 1.094000000000000E+10   1.091722874376220E-1   -2.786564565810720E-2
 1.095000000000000E+10   4.416326561800754E-2   -4.024532248220437E-2
 1.096000000000000E+10   5.562551288466932E-2   -2.895917860802792E-2
 1.097000000000000E+10   5.437100851807233E-2   -6.920357214555437E-2
 1.098000000000000E+10  -4.965594684759621E-3   -1.087105935385682E-1
 1.099000000000000E+10  -7.449680432702988E-2   -5.585180193015266E-2
 1.100000000000000E+10  -5.751159150127819E-2    1.871350302678013E-2
 1.101000000000000E+10  -1.322773248141480E-2    3.488688162578519E-2
 1.102000000000000E+10  -6.947696608437532E-4   -1.061220885472522E-3
 1.103000000000000E+10  -2.335291492013235E-2    1.492692197818019E-2
 1.104000000000000E+10  -1.038754660462401E-2    4.785264352601536E-2
 1.105000000000000E+10   5.133354697200326E-2    4.405705727803074E-2
 1.106000000000000E+10   6.002140620657549E-2   -1.451708945163980E-2
 1.107000000000000E+10   7.556345453027532E-3   -2.695137596360042E-2
 1.108000000000000E+10  -8.982081702931554E-3    8.926967767324089E-3
 1.109000000000000E+10   3.384315773148856E-2    2.901123331175899E-2
 1.110000000000000E+10   5.656526965319617E-2   -2.309449015994699E-2
 1.111000000000000E+10   1.450506939619302E-2   -4.891963939118813E-2
 1.112000000000000E+10  -1.798957675361315E-2   -1.568318167281798E-2
 1.113000000000000E+10   1.440038419005591E-2    2.485082807389829E-2
 1.114000000000000E+10   4.848498485221115E-2   -1.463840380291806E-2
 1.115000000000000E+10  -2.079537594154486E-3   -5.603199756986583E-2
 1.116000000000000E+10  -5.232341941509967E-2   -1.681572013353803E-2
 1.117000000000000E+10  -1.451180326895248E-2    4.711589307633791E-2
 1.118000000000000E+10   3.411310530985039E-2    2.013360207526983E-2
 1.119000000000000E+10   1.793182105539660E-2   -1.720309077672120E-2
 1.120000000000000E+10  -1.670370336946938E-2    7.343737660445822E-3
 1.121000000000000E+10   1.272929776856027E-2    4.844002262061527E-2
 1.122000000000000E+10   6.293025516860448E-2    2.248196887964375E-2
 1.123000000000000E+10   5.328943877499074E-2   -4.128715419201331E-2
 1.124000000000000E+10  -7.014638866922779E-3   -4.424151205151316E-2
 1.125000000000000E+10  -1.457507820507088E-2    1.320960273673599E-2
 1.126000000000000E+10   3.167356935603526E-2    1.400321003124838E-2
 1.127000000000000E+10   2.560856053740559E-2   -2.459107574691809E-2
 1.128000000000000E+10  -2.729713807258320E-2   -2.677068747332332E-2
 1.129000000000000E+10  -3.311357217289793E-2    3.492310595811186E-2
 1.130000000000000E+10   2.401183493639626E-2    4.977160792745004E-2
 1.131000000000000E+10   5.731723655411081E-2    1.166625729522211E-2
 1.132000000000000E+10   2.470195107824541E-2   -2.047353745343743E-2
 1.133000000000000E+10   3.266298460514795E-4    1.636081013363046E-2
 1.134000000000000E+10   3.396731787855185E-2    3.585188097908049E-2
 1.135000000000000E+10   6.239665828145109E-2    3.056479575458717E-4
 1.136000000000000E+10   2.546515328889776E-2   -5.143661874351088E-2
 1.137000000000000E+10  -2.777751355304548E-2   -1.080607170911800E-2
 1.138000000000000E+10   9.633917553090773E-3    3.640297638618933E-2
 1.139000000000000E+10   5.496234859877711E-2    7.658188960808531E-3
 1.140000000000000E+10   2.912646545718426E-2   -3.341594291446016E-2
 1.141000000000000E+10  -1.742843699510390E-2   -2.146931696983367E-2
 1.142000000000000E+10  -9.978776993276916E-3    3.034473767856210E-2
 1.143000000000000E+10   4.803060905544965E-2    2.566134529299179E-2
 1.144000000000000E+10   4.350361452824945E-2   -4.225399779642534E-2
 1.145000000000000E+10  -1.859965435152465E-2   -3.230808966216146E-2
 1.146000000000000E+10  -2.266756637949140E-2    3.323389778892526E-2
 1.147000000000000E+10   3.989541792049224E-2    3.638840273114874E-2
 1.148000000000000E+10   4.079106806352068E-2   -2.462582827661472E-2
 1.149000000000000E+10  -1.093906148666994E-2   -2.313522308487131E-2
 1.150000000000000E+10  -1.447886434730704E-2    2.551871862367113E-2
 1.151000000000000E+10   4.811946190110225E-2    3.813519832906472E-2
 1.152000000000000E+10   6.541488676384409E-2   -2.254122231866534E-2
 1.153000000000000E+10   9.564163655869965E-3   -4.409813672997949E-2
 1.154000000000000E+10  -2.546662161218941E-2   -2.532729147259272E-3
 1.155000000000000E+10   9.680247191632380E-3    3.099560051318612E-2
 1.156000000000000E+10   4.169069187216087E-2   -1.097500354525338E-2
 1.157000000000000E+10   5.773580275262478E-4   -3.942938193657685E-2
 1.158000000000000E+10  -3.716783974161750E-2    5.965015693814169E-3
 1.159000000000000E+10   4.839120273298900E-3    4.739132269373255E-2
 1.160000000000000E+10   4.144363500491605E-2    2.373021522459744E-2
 1.161000000000000E+10   2.684941144309475E-2   -8.905115418047740E-3
 1.162000000000000E+10  -4.456757140298535E-3    1.079200043820983E-3
 1.163000000000000E+10   2.068566657534690E-2    4.496107383172415E-2
 1.164000000000000E+10   7.731963933371860E-2    2.647784542492277E-2
 1.165000000000000E+10   7.579618084057153E-2   -4.058018991901162E-2
 1.166000000000000E+10   5.135373849936091E-3   -5.615491709506956E-2
 1.167000000000000E+10  -9.697152462752271E-3   -4.570579577435618E-3
 1.168000000000000E+10   2.611152525649627E-2   -1.613463975989877E-3
 1.169000000000000E+10   1.818796665833172E-2   -5.255591415211278E-2
 1.170000000000000E+10  -4.846044316249072E-2   -5.435761299597644E-2
 1.171000000000000E+10  -6.695046514621979E-2    3.194685934721364E-2
 1.172000000000000E+10  -1.083205895194293E-2    7.668120419519342E-2
 1.173000000000000E+10   3.333169395420333E-2    4.549538163817650E-2
 1.174000000000000E+10   9.149348418019674E-3    2.224752562894180E-2
 1.175000000000000E+10   5.282285989181068E-3    6.541802309831511E-2
 1.176000000000000E+10   7.844626396573830E-2    7.035202673329305E-2
 1.177000000000000E+10   1.257850748483231E-1   -1.363600043667423E-2
 1.178000000000000E+10   6.476213638620512E-2   -8.492238460923736E-2
 1.179000000000000E+10  -9.495326676585591E-3   -6.668757933466533E-2
 1.180000000000000E+10  -1.821950800865503E-2   -3.367321806558813E-2
 1.181000000000000E+10  -1.149769128210841E-2   -3.427614608844069E-2
 1.182000000000000E+10  -5.570341834643703E-2   -4.157703031184921E-2
 1.183000000000000E+10  -9.907637975211864E-2    2.136773638589790E-2
 1.184000000000000E+10  -5.496220806415562E-2    1.080423438630082E-1
 1.185000000000000E+10   4.040170579315396E-2    1.225957092081187E-1
 1.186000000000000E+10   7.820637653404108E-2    6.239773627904784E-2
 1.187000000000000E+10   7.529116007332835E-2    3.431765252941430E-2
 1.188000000000000E+10   8.828049520640870E-2    2.832379391943546E-2
 1.189000000000000E+10   1.330123063276620E-1   -1.681472941134814E-2
 1.190000000000000E+10   1.070651004933480E-1   -1.179576546289922E-1
 1.191000000000000E+10   8.089221478460746E-3   -1.437648266340169E-1
 1.192000000000000E+10  -7.687553229460113E-2   -8.390409042426476E-2
 1.193000000000000E+10  -7.312776402671525E-2   -1.186730289676247E-2
 1.194000000000000E+10  -4.809746617536614E-2    4.429616979248339E-4
 1.195000000000000E+10  -7.323364741599286E-2    6.406630399490816E-3
 1.196000000000000E+10  -8.011501775716734E-2    8.767895205816489E-2
 1.197000000000000E+10   2.411122480637448E-2    1.442381796440493E-1
 1.198000000000000E+10   1.199872592529056E-1    7.867172064194718E-2
 1.199000000000000E+10   1.113048915668325E-1   -9.743818255265461E-3
 1.200000000000000E+10   5.845202955696874E-2   -2.767611356295941E-2
 1.201000000000000E+10   7.269894890715517E-2   -2.371442037155837E-2
 1.202000000000000E+10   7.839866013907403E-2   -7.737238243375012E-2
 1.203000000000000E+10   6.686359617488605E-3   -1.331977379120223E-1
 1.204000000000000E+10  -9.997207853858428E-2   -8.426959436086844E-2
 1.205000000000000E+10  -9.433694920120239E-2    2.129030057509930E-2
 1.206000000000000E+10  -4.168832168128175E-2    4.981291009180464E-2
 1.207000000000000E+10  -2.932614539347799E-2    3.049040038147216E-2
 1.208000000000000E+10  -4.370420920753793E-2    5.062120923528631E-2
 1.209000000000000E+10   1.431565940344409E-3    9.959942232698756E-2
 1.210000000000000E+10   7.692099389227947E-2    8.207198072342665E-2
 1.211000000000000E+10   1.063502655146242E-1    2.347494571109952E-3
 1.212000000000000E+10   5.528426168071143E-2   -4.574888569446122E-2
 1.213000000000000E+10   6.895564437324074E-3   -2.835419481386261E-2
 1.214000000000000E+10   1.877990568542393E-2   -6.144755504896273E-3
 1.215000000000000E+10   3.409085018011139E-2   -5.139871753503682E-2
 1.216000000000000E+10  -3.225576242090987E-2   -7.173442866836963E-2
 1.217000000000000E+10  -8.729539367819512E-2   -5.639400666993348E-3
 1.218000000000000E+10  -3.960505925757166E-2    6.497497200298284E-2
 1.219000000000000E+10   3.227880063609329E-2    4.456421600608605E-2
 1.220000000000000E+10   4.899788861572061E-3    3.057277541704043E-3
 1.221000000000000E+10  -2.222863600299158E-2    2.968625203584040E-2
 1.222000000000000E+10   2.457911096471742E-2    7.327452089692033E-2
 1.223000000000000E+10   1.002761304011257E-1    3.149962333611121E-2
 1.224000000000000E+10   7.101136497063282E-2   -5.223877204261081E-2
 1.225000000000000E+10   5.232608572371769E-3   -5.283233853132051E-2
 1.226000000000000E+10   1.973695916330598E-3   -5.419580647246539E-3
 1.227000000000000E+10   3.978938581349752E-2   -2.356011296827640E-2
 1.228000000000000E+10   5.351242439539631E-3   -8.137914688630815E-2
 1.229000000000000E+10  -6.290639395734926E-2   -5.874888225411042E-2
 1.230000000000000E+10  -7.339136889840651E-2    1.968187085938333E-2
 1.231000000000000E+10  -1.827500728082828E-2    5.261454100568532E-2
 1.232000000000000E+10   4.056360077996987E-3    1.861715507133555E-2
 1.233000000000000E+10  -1.557387993829274E-2    1.120863983054916E-2
 1.234000000000000E+10  -2.171769930098801E-2    5.751410644872677E-2
 1.235000000000000E+10   4.803608541832492E-2    6.543125574029879E-2
 1.236000000000000E+10   9.032361221688950E-2    2.795291736699640E-3
 1.237000000000000E+10   5.579979369069150E-2   -6.035941919089563E-2
 1.238000000000000E+10  -1.245583413314902E-2   -4.457503960479755E-2
 1.239000000000000E+10   2.398913345938837E-3   -1.710578801322992E-2
 1.240000000000000E+10   1.333186443690537E-2   -4.010630590979347E-2
 1.241000000000000E+10  -2.917123031921622E-2   -7.610891402566394E-2
 1.242000000000000E+10  -1.005796630182981E-1   -2.774908868735665E-2
 1.243000000000000E+10  -7.466820456298981E-2    5.828496035989811E-2
 1.244000000000000E+10  -2.558032295340681E-3    7.655457367338372E-2
 1.245000000000000E+10   2.186402211612332E-2    1.989967049717682E-2
 1.246000000000000E+10  -2.666156980944272E-2    2.315153044247219E-2
 1.247000000000000E+10   2.865959957368413E-3    7.235076977810441E-2
 1.248000000000000E+10   8.454087484621180E-2    4.772952186578479E-2
 1.249000000000000E+10   8.594539586292768E-2   -5.352194652809685E-2
 1.250000000000000E+10   3.842388610860233E-3   -7.066153266839145E-2
