#  HZ   S   RI   R     50.00 
! Rohde & Schwarz Vector Network Analyzer 
! Rohde-Schwarz,ZNA43-4Port,1332450044101932,2.92
! Created: UTC 6/9/2026, 6:48:35 AM
! freq[Hz]                re:S11                  im:S11
 8.000000000000000E9    -1.494109846995398E-1   -1.607393088933831E-1
 8.010000000000000E9    -1.926171691435964E-1   -9.067388414939399E-2
 8.020000000000000E9    -2.329283843711785E-1    1.488054844221247E-2
 8.030000000000000E9    -1.929592769156054E-1    1.502461084141203E-1
 8.040000000000000E9    -6.156790289026529E-2    2.270007339391087E-1
 8.050000000000000E9     5.632251590544519E-2    2.156526237241923E-1
 8.060000000000000E9     1.153036479221705E-1    1.633003536768064E-1
 8.070000000000000E9     1.865812932379843E-1    1.216203855665945E-1
 8.080000000000000E9     2.565961879298390E-1    8.309744735381482E-3
 8.090000000000000E9     2.199822286786202E-1   -1.295599935605584E-1
 8.100000000000000E9     1.073293396246517E-1   -2.129917818217782E-1
 8.110000000000000E9     3.081302931605991E-3   -2.113039509904303E-1
 8.120000000000000E9    -7.866706941814006E-2   -1.960170311789928E-1
 8.130000000000000E9    -1.896531094519939E-1   -1.435753491372972E-1
 8.140000000000000E9    -2.579015182648112E-1   -5.576776489965413E-3
 8.150000000000000E9    -1.989168036736835E-1    1.351934430078333E-1
 8.160000000000000E9    -8.615304994581663E-2    2.194906646876311E-1
 8.170000000000000E9     1.185778317950958E-2    2.260450357451069E-1
 8.180000000000000E9     1.107713170390639E-1    2.118508772441373E-1
 8.190000000000000E9     2.276022490184706E-1    1.474998538588355E-1
 8.200000000000000E9     2.751239762821298E-1    7.257437035417245E-3
 8.210000000000000E9     2.153244351377323E-1   -1.575442777614598E-1
 8.220000000000000E9     1.055200083261561E-1   -2.077638500334157E-1
 8.230000000000000E9     1.792871762193828E-2   -2.127108401857080E-1
 8.240000000000000E9    -9.163111005658817E-2   -2.019353316033798E-1
 8.250000000000000E9    -2.129999576377104E-1   -1.233079949158743E-1
 8.260000000000000E9    -2.332562555482414E-1    3.721086970847125E-2
 8.270000000000000E9    -1.541641856926427E-1    1.637337167415835E-1
 8.280000000000000E9    -5.262175296448661E-2    1.875397645205640E-1
 8.290000000000000E9     2.803794798948821E-2    1.888247769225287E-1
 8.300000000000000E9     1.389252565754741E-1    1.856428377021700E-1
 8.310000000000000E9     2.213068927795399E-1    8.509812242017052E-2
 8.320000000000000E9     2.174158377825080E-1   -6.535601907101243E-2
 8.330000000000000E9     1.339297706749356E-1   -1.423954522881186E-1
 8.340000000000000E9     5.319488086323553E-2   -1.468808921808738E-1
 8.350000000000000E9    -1.027304807396181E-2   -1.572386092004497E-1
 8.360000000000000E9    -9.705705996843537E-2   -1.417982374207664E-1
 8.370000000000000E9    -1.591203521359634E-1   -3.369564916847637E-2
 8.380000000000000E9    -1.374053719209723E-1    8.653000000809496E-2
 8.390000000000000E9    -6.019900655626407E-2    1.132234838261370E-1
 8.400000000000000E9    -5.716152510498607E-4    1.192178425369441E-1
 8.410000000000000E9     4.614694743167920E-2    1.285778715165226E-1
 8.420000000000000E9     1.133624095665535E-1    1.090981012902152E-1
 8.430000000000000E9     1.813183199740819E-1    1.649434620401279E-2
 8.440000000000000E9     1.363847841486898E-1   -7.382894675703924E-2
 8.450000000000000E9     6.663189826776997E-2   -7.803883250452810E-2
 8.460000000000000E9     4.026008151065827E-2   -8.935921690659494E-2
 8.470000000000000E9     1.257764233423265E-2   -1.218031331121199E-1
 8.480000000000000E9    -7.344074040453470E-2   -9.638909307916851E-2
 8.490000000000000E9    -1.113655542829766E-1   -6.998317619272399E-3
 8.500000000000000E9    -6.067733096506273E-2    4.588920859041380E-2
 8.510000000000000E9    -1.873707484639826E-2    5.489231490563564E-2
 8.520000000000000E9    -2.187804354149128E-2    6.739901541325817E-2
 8.530000000000000E9     1.558638083905725E-2    9.103901175218275E-2
 8.540000000000000E9     8.737753373342451E-2    6.978178332691616E-2
 8.550000000000000E9     1.161238247007001E-1    1.383568932172985E-3
 8.560000000000000E9     6.364744920356963E-2   -3.929929102581650E-2
 8.570000000000000E9     3.956383818076056E-2   -3.046021806433059E-2
 8.580000000000000E9     5.421327782786765E-2   -3.887873515620728E-2
 8.590000000000000E9     1.147449401659545E-2   -7.836603761885484E-2
 8.600000000000000E9    -6.350284575374791E-2   -5.056931163041559E-2
 8.610000000000000E9    -4.695313850296404E-2    1.779805536479672E-2
 8.620000000000000E9     1.735434180455474E-4    4.699440767112851E-2
 8.630000000000000E9     9.378552135380927E-3    2.453620501427060E-2
 8.640000000000000E9     7.612840171585359E-3    3.570126303210810E-2
 8.650000000000000E9     4.401741673253860E-2    5.713375536943517E-2
 8.660000000000000E9     9.821490635516320E-2    1.377280517727204E-2
 8.670000000000000E9     5.818456091555844E-2   -6.495182317707157E-2
 8.680000000000000E9    -1.417905002979624E-3   -5.258598517924995E-2
 8.690000000000000E9     4.649465515222709E-3   -1.091030470405841E-2
 8.700000000000000E9     2.317763621893204E-2   -2.390455066656371E-2
 8.710000000000000E9    -3.195068833693204E-2   -4.165981121615776E-2
 8.720000000000000E9    -5.175301549633092E-2    1.796822383431146E-2
 8.730000000000000E9     1.091440830777483E-2    6.822353300566619E-2
 8.740000000000000E9     5.304384386444672E-2    1.437954892539070E-2
 8.750000000000000E9     2.167288289195010E-2   -1.795151837670371E-2
 8.760000000000000E9     2.193322463332761E-2    1.455926939416995E-2
 8.770000000000000E9     5.114744319080752E-2    9.518115890784079E-3
 8.780000000000000E9     3.388525481942597E-2   -5.030376048875446E-2
 8.790000000000000E9    -2.421999985741800E-2   -5.601323787712113E-2
 8.800000000000000E9    -4.685813492357000E-2    1.080077024620518E-2
 8.810000000000000E9     1.120841344256740E-3    3.671428036878740E-2
 8.820000000000000E9     1.309563196253621E-3    8.649176894667836E-4
 8.830000000000000E9    -9.808008199433374E-3    2.589917941692189E-2
 8.840000000000000E9     1.527228017299918E-2    6.709399765880897E-2
 8.850000000000000E9     6.610376603588324E-2    3.511168244418106E-2
 8.860000000000000E9     5.514522966798534E-2   -1.883825217903085E-2
 8.870000000000000E9     2.963312113309147E-2   -1.899100938509802E-2
 8.880000000000000E9     2.305881230062390E-2    4.607184538550250E-3
 8.890000000000000E9     4.373612735330579E-2   -1.676352610198712E-2
 8.900000000000000E9     3.107064568941807E-2   -4.466334828859998E-2
 8.910000000000000E9    -7.551743285765179E-3   -3.188124022857681E-2
 8.920000000000000E9    -1.263147249350351E-2    2.699943309579560E-3
 8.930000000000000E9     1.361661770772258E-2   -2.319799771985978E-2
 8.940000000000000E9    -5.484269744357703E-3   -3.764734080440045E-2
 8.950000000000000E9    -5.864619395844179E-2    2.233209117597965E-4
 8.960000000000000E9    -3.524130417168124E-2    5.051009901623967E-2
 8.970000000000000E9     7.004512276994958E-3    4.570447303701102E-2
 8.980000000000000E9     1.147102537121172E-2    4.347794130352931E-2
 8.990000000000000E9     5.254053940609480E-3    6.666480575106314E-2
 9.000000000000000E9     7.529810839012681E-2    5.766823398058464E-2
 9.010000000000000E9     1.211894327549629E-1    1.121290331409797E-2
 9.020000000000000E9     9.409767001114519E-2   -5.829499770606963E-2
 9.030000000000000E9     3.270851595787095E-2   -8.049925294045449E-2
 9.040000000000000E9     1.503089466127078E-2   -7.743278123093263E-2
 9.050000000000000E9    -2.311670831735402E-2   -9.231940107066280E-2
 9.060000000000000E9    -1.103038758794495E-1   -7.600716862835205E-2
 9.070000000000000E9    -1.378445771746031E-1    2.918866687268315E-2
 9.080000000000000E9    -7.712117553516995E-2    1.126351188582172E-1
 9.090000000000000E9    -4.782973474451759E-3    1.321111776228439E-1
 9.100000000000000E9     3.738129745425124E-2    1.206249465754421E-1
 9.110000000000000E9     1.049109443783445E-1    1.155037381804462E-1
 9.120000000000000E9     1.823451591394834E-1    5.333700586283869E-2
 9.130000000000000E9     1.852612983472464E-1   -7.419923500018293E-2
 9.140000000000000E9     9.242601424068320E-2   -1.671680954764963E-1
 9.150000000000000E9     1.337640933770758E-3   -1.581944426633459E-1
 9.160000000000000E9    -5.910533121125704E-2   -1.275885037485065E-1
 9.170000000000000E9    -1.298456841677398E-1   -1.137180764824015E-1
 9.180000000000000E9    -2.108337424872783E-1   -1.437254404743123E-2
 9.190000000000000E9    -1.727919210686691E-1    1.365651227541246E-1
 9.200000000000000E9    -5.510033144943417E-2    1.947668810165960E-1
 9.210000000000000E9     3.866509601434599E-2    1.655850728428324E-1
 9.220000000000000E9     9.496854941482076E-2    1.520957753360209E-1
 9.230000000000000E9     1.800396741370360E-1    1.141220895993997E-1
 9.240000000000000E9     2.260890058976677E-1   -1.179422982631302E-2
 9.250000000000000E9     1.656654160930179E-1   -1.450653838383090E-1
 9.260000000000000E9     4.658623598345718E-2   -1.770378528210952E-1
 9.270000000000000E9    -2.789681831447281E-2   -1.514051142217479E-1
 9.280000000000000E9    -8.463959442437585E-2   -1.299701738126537E-1
 9.290000000000000E9    -1.562976425657912E-1   -8.564633088802211E-2
 9.300000000000000E9    -1.918334699258179E-1    3.931865362541404E-2
 9.310000000000000E9    -1.252684920082762E-1    1.468968280811074E-1
 9.320000000000000E9    -2.864116313661311E-2    1.561600481209300E-1
 9.330000000000000E9     3.549995531966441E-2    1.507927213127390E-1
 9.340000000000000E9     9.488668850988503E-2    1.360061288033348E-1
 9.350000000000000E9     1.647897292834479E-1    8.812097490739376E-2
 9.360000000000000E9     1.968577960466136E-1   -2.064003827991862E-2
 9.370000000000000E9     1.402917516486431E-1   -1.158441864977316E-1
 9.380000000000000E9     4.347128652724427E-2   -1.473857734979883E-1
 9.390000000000000E9    -1.098825076640907E-2   -1.417969026240749E-1
 9.400000000000000E9    -5.764446416522123E-2   -1.464736619536367E-1
 9.410000000000000E9    -1.530114449001315E-1   -1.053612517806496E-1
 9.420000000000000E9    -2.007254645103906E-1    9.047880987320059E-3
 9.430000000000000E9    -1.355636609067818E-1    1.202749832935383E-1
 9.440000000000000E9    -6.151238562140437E-2    1.430255960287917E-1
 9.450000000000000E9    -2.142322630889708E-2    1.590189677016498E-1
 9.460000000000000E9     6.434699634259015E-2    1.802512736867553E-1
 9.470000000000000E9     1.794690048081136E-1    1.277192577048686E-1
 9.480000000000000E9     2.148186563791490E-1    4.335716375979134E-3
 9.490000000000000E9     1.658582742524246E-1   -1.026539084486623E-1
 9.500000000000000E9     8.976859301824414E-2   -1.425372674108434E-1
 9.510000000000000E9     4.066542336827966E-2   -1.713106633809252E-1
 9.520000000000000E9    -6.052744189960785E-2   -2.010176083423794E-1
 9.530000000000000E9    -1.829695454056553E-1   -1.428423403705569E-1
 9.540000000000000E9    -2.184662331131970E-1    1.525990571097183E-3
 9.550000000000000E9    -1.593202130717027E-1    1.047500337853006E-1
 9.560000000000000E9    -1.098309817382705E-1    1.391431158598537E-1
 9.570000000000000E9    -4.848295470173777E-2    1.889163481985091E-1
 9.580000000000000E9     6.347423667615058E-2    2.183185555497708E-1
 9.590000000000000E9     1.821286409431106E-1    1.426307359333034E-1
 9.600000000000000E9     2.082738780517540E-1    1.913040035260499E-3
 9.610000000000000E9     1.569781032851668E-1   -7.993176474419843E-2
 9.620000000000000E9     1.070057002607186E-1   -1.091881956793808E-1
 9.630000000000000E9     5.844949858129671E-2   -1.705751927800556E-1
 9.640000000000000E9    -5.055002543928797E-2   -1.928804864828953E-1
 9.650000000000000E9    -1.659260838427857E-1   -1.114312342542724E-1
 9.660000000000000E9    -1.724767370879170E-1    8.222958558291638E-3
 9.670000000000000E9    -1.233687401615944E-1    5.813498296233906E-2
 9.680000000000000E9    -1.126547799765117E-1    9.651350866007595E-2
 9.690000000000000E9    -6.887658198579236E-2    1.745817389092129E-1
 9.700000000000000E9     4.822833599571971E-2    1.947508658215089E-1
 9.710000000000000E9     1.338101125363926E-1    1.256512584681002E-1
 9.720000000000000E9     1.539542905177621E-1    3.938193216659347E-2
 9.730000000000000E9     1.435898082837771E-1   -1.033427672212829E-2
 9.740000000000000E9     1.475862408252228E-1   -6.727568390932678E-2
 9.750000000000000E9     1.093618475690245E-1   -1.447323970755403E-1
 9.760000000000000E9    -3.123694043360930E-4   -1.848239364192507E-1
 9.770000000000000E9    -1.008906971021043E-1   -1.415645994299308E-1
 9.780000000000000E9    -1.334724386359026E-1   -6.828674569680991E-2
 9.790000000000000E9    -1.470944159403409E-1   -2.244039729492971E-2
 9.800000000000000E9    -1.716389085849241E-1    5.171164183172648E-2
 9.810000000000000E9    -1.294540572953195E-1    1.590959761378160E-1
 9.820000000000000E9    -1.741937835208424E-2    2.133414958043124E-1
 9.830000000000000E9     9.310987189949996E-2    1.788448735235712E-1
 9.840000000000000E9     1.471265447495874E-1    1.086535612849739E-1
 9.850000000000000E9     1.813191377946437E-1    4.879939388462072E-2
 9.860000000000000E9     2.096757010919500E-1   -3.865082913047800E-2
 9.870000000000000E9     1.693146278947995E-1   -1.726262866015015E-1
 9.880000000000000E9     3.218402732820173E-2   -2.366136420962117E-1
 9.890000000000000E9    -9.407552140661435E-2   -1.901595017801067E-1
 9.900000000000000E9    -1.488326628126384E-1   -1.148961118522137E-1
 9.910000000000000E9    -1.965841816721121E-1   -6.119624356655860E-2
 9.920000000000000E9    -2.316619952952464E-1    5.605945970133400E-2
 9.930000000000000E9    -1.621802683797260E-1    1.949796072042063E-1
 9.940000000000000E9    -1.106841632762665E-2    2.423685379657918E-1
 9.950000000000000E9     1.004032341356987E-1    1.913432601054610E-1
 9.960000000000000E9     1.578137083359016E-1    1.288836767567365E-1
 9.970000000000000E9     2.077573776106918E-1    5.836498797760310E-2
 9.980000000000000E9     2.308132492430163E-1   -6.940944587241615E-2
 9.990000000000000E9     1.519797931636326E-1   -2.019146962618376E-1
 1.000000000000000E+10   7.904878912633142E-3   -2.367834488803478E-1
 1.001000000000000E+10  -1.010279327085380E-1   -1.786977657458365E-1
 1.002000000000000E+10  -1.499509501455328E-1   -1.163720740761274E-1
 1.003000000000000E+10  -2.030784718017350E-1   -5.203343180239738E-2
 1.004000000000000E+10  -2.251568157606326E-1    8.184688036160384E-2
 1.005000000000000E+10  -1.318924005903493E-1    1.994286655421677E-1
 1.006000000000000E+10   1.079854635884414E-2    2.111317403354465E-1
 1.007000000000000E+10   8.970513999736178E-2    1.610676335818768E-1
 1.008000000000000E+10   1.357905959508643E-1    1.125841454734266E-1
 1.009000000000000E+10   1.876868994328602E-1    4.591685490492013E-2
 1.010000000000000E+10   2.037774765216367E-1   -6.766057625629310E-2
 1.011000000000000E+10   1.129522519403338E-1   -1.762722315876897E-1
 1.012000000000000E+10  -8.468136561497265E-3   -1.831395329650704E-1
 1.013000000000000E+10  -6.555010170397621E-2   -1.329415760357567E-1
 1.014000000000000E+10  -1.005704243838356E-1   -1.088364777607566E-1
 1.015000000000000E+10  -1.659431170260457E-1   -5.085135187281425E-2
 1.016000000000000E+10  -1.768278865167550E-1    5.790313587014558E-2
 1.017000000000000E+10  -8.857716968852168E-2    1.461451834722374E-1
 1.018000000000000E+10  -9.302276502651498E-3    1.409602781869676E-1
 1.019000000000000E+10   3.487190919917527E-2    1.107604680216795E-1
 1.020000000000000E+10   7.909915614657217E-2    1.078247276199373E-1
 1.021000000000000E+10   1.390366218586676E-1    6.423488252491338E-2
 1.022000000000000E+10   1.565574917435010E-1   -2.582933828648424E-2
 1.023000000000000E+10   9.806505559020604E-2   -1.134331277523879E-1
 1.024000000000000E+10   3.010669464799151E-2   -1.105352196168740E-1
 1.025000000000000E+10  -4.753229380222505E-3   -1.010061600179086E-1
 1.026000000000000E+10  -3.921774330350866E-2   -1.167362377322462E-1
 1.027000000000000E+10  -1.136253432507188E-1   -8.763136588031993E-2
 1.028000000000000E+10  -1.462027460998649E-1    1.491278268373922E-2
 1.029000000000000E+10  -9.523309395579253E-2    8.875233240640498E-2
 1.030000000000000E+10  -3.282259680199394E-2    8.709550553113801E-2
 1.031000000000000E+10  -1.542976842575056E-2    9.237803977803748E-2
 1.032000000000000E+10   3.192073184657608E-2    1.233044702234243E-1
 1.033000000000000E+10   1.195928742458130E-1    8.982556479970305E-2
 1.034000000000000E+10   1.591954607087730E-1   -1.098414986427283E-2
 1.035000000000000E+10   9.726569629991362E-2   -8.026689926002628E-2
 1.036000000000000E+10   4.663184493707487E-2   -8.269080539537173E-2
 1.037000000000000E+10   4.113256909875325E-2   -1.091796009921771E-1
 1.038000000000000E+10  -2.184899583552420E-2   -1.515366702083200E-1
 1.039000000000000E+10  -1.353172844964358E-1   -1.067087161342882E-1
 1.040000000000000E+10  -1.501142413692046E-1    4.623101231020007E-4
 1.041000000000000E+10  -9.250868890532141E-2    5.964519619768324E-2
 1.042000000000000E+10  -7.542058872338146E-2    6.868480100945722E-2
 1.043000000000000E+10  -6.340743321851790E-2    1.167965885497113E-1
 1.044000000000000E+10   1.972115587360775E-2    1.518531329614061E-1
 1.045000000000000E+10   1.262996875584400E-1    1.052229336983286E-1
 1.046000000000000E+10   1.335798134577056E-1    2.636189734314694E-3
 1.047000000000000E+10   9.160417680423759E-2   -4.162095522730770E-2
 1.048000000000000E+10   8.026375490832624E-2   -5.160046474282598E-2
 1.049000000000000E+10   6.821860106893494E-2   -1.029075533057039E-1
 1.050000000000000E+10  -2.383681757507672E-2   -1.462951601044605E-1
 1.051000000000000E+10  -1.098065151459842E-1   -9.032900657722819E-2
 1.052000000000000E+10  -1.059229148221913E-1    5.457649496140152E-3
 1.053000000000000E+10  -7.155651462004105E-2    2.191459560370878E-2
 1.054000000000000E+10  -8.066172160463068E-2    4.088814997818382E-2
 1.055000000000000E+10  -5.973425496324532E-2    1.075928974258350E-1
 1.056000000000000E+10   2.150895397791253E-2    1.385321171828476E-1
 1.057000000000000E+10   9.655814406367690E-2    8.371984113803158E-2
 1.058000000000000E+10   9.853470891928864E-2    1.484897669228436E-2
 1.059000000000000E+10   8.402397405996367E-2   -3.553195470236662E-3
 1.060000000000000E+10   9.825054806347808E-2   -2.604870093953457E-2
 1.061000000000000E+10   8.998774393903845E-2   -9.892811367677930E-2
 1.062000000000000E+10  -2.694098056244988E-3   -1.317816349243948E-1
 1.063000000000000E+10  -7.403950476472397E-2   -8.443224201144331E-2
 1.064000000000000E+10  -7.314057164762149E-2   -2.607162747341218E-2
 1.065000000000000E+10  -7.606481214056382E-2   -2.015841917578429E-2
 1.066000000000000E+10  -1.001085113800767E-1    3.040387444467203E-2
 1.067000000000000E+10  -7.553094090812267E-2    1.059688246367341E-1
 1.068000000000000E+10   1.404264217049248E-2    1.431964971779776E-1
 1.069000000000000E+10   8.085783252611974E-2    1.033632361608296E-1
 1.070000000000000E+10   1.063618244360909E-1    4.959794438836890E-2
 1.071000000000000E+10   1.177781627479287E-1    2.144566443396706E-2
 1.072000000000000E+10   1.476290863611712E-1   -3.325498102040973E-2
 1.073000000000000E+10   1.224760327598003E-1   -1.189499885510917E-1
 1.074000000000000E+10   2.265149606362559E-2   -1.706719186401719E-1
 1.075000000000000E+10  -6.608102008256228E-2   -1.141919069136634E-1
 1.076000000000000E+10  -8.435615981349502E-2   -6.168463892283485E-2
 1.077000000000000E+10  -9.824164874247050E-2   -3.439077381389800E-2
 1.078000000000000E+10  -1.198043786264590E-1    2.735989595573171E-2
 1.079000000000000E+10  -7.981228307969197E-2    1.164180298451727E-1
 1.080000000000000E+10   2.584010522555234E-2    1.403320481672636E-1
 1.081000000000000E+10   9.796775416997597E-2    7.986779095702025E-2
 1.082000000000000E+10   9.849169384735443E-2    2.359932478732596E-2
 1.083000000000000E+10   1.007721762491589E-1   -6.430334776505864E-4
 1.084000000000000E+10   1.190786314285277E-1   -5.302802386348666E-2
 1.085000000000000E+10   7.792693820774009E-2   -1.385944571508041E-1
 1.086000000000000E+10  -3.859387937917443E-2   -1.436425534748085E-1
 1.087000000000000E+10  -9.080755027899558E-2   -5.975124238987677E-2
 1.088000000000000E+10  -6.998877923815548E-2   -9.823667380673529E-3
 1.089000000000000E+10  -7.577075308623273E-2    3.673279898050217E-3
 1.090000000000000E+10  -9.221064346344029E-2    5.818620627278631E-2
 1.091000000000000E+10  -2.048821807493563E-2    1.205254674568300E-1
 1.092000000000000E+10   7.844875929121921E-2    1.027563599990383E-1
 1.093000000000000E+10   9.775337303226102E-2    2.697078067254488E-2
 1.094000000000000E+10   7.761565931154388E-2   -6.791908885810076E-3
 1.095000000000000E+10   7.145277412100733E-2   -8.148189477904891E-3
 1.096000000000000E+10   8.969546361715372E-2   -5.114900374975861E-2
 1.097000000000000E+10   3.264703693239272E-2   -1.114654877882787E-1
 1.098000000000000E+10  -4.804627354920419E-2   -8.479445308685382E-2
 1.099000000000000E+10  -4.905998482724372E-2   -9.752809190183712E-3
 1.100000000000000E+10  -1.136518017969607E-2   -4.140384222159106E-3
 1.101000000000000E+10  -3.367772804118566E-2   -1.895213277466611E-2
 1.102000000000000E+10  -5.227339058067106E-2    2.548592058759234E-2
 1.103000000000000E+10  -4.321739022785537E-3    6.715333025466763E-2
 1.104000000000000E+10   4.593265290518830E-2    3.047822174339255E-2
 1.105000000000000E+10   3.435831414194959E-2   -1.760852390823598E-2
 1.106000000000000E+10  -3.686423357881527E-3    5.913001503701381E-3
 1.107000000000000E+10   2.913949911071786E-2    3.396334569364243E-2
 1.108000000000000E+10   5.548907084421299E-2   -4.321627921400616E-3
 1.109000000000000E+10   2.062653038419097E-2   -3.780200239500604E-2
 1.110000000000000E+10  -1.009116876412149E-2   -8.493887972969042E-3
 1.111000000000000E+10   2.416660633491736E-2    2.183856326789202E-2
 1.112000000000000E+10   5.251263829890049E-2   -2.242693015425818E-2
 1.113000000000000E+10   7.678288811208089E-3   -4.579173043677243E-2
 1.114000000000000E+10  -1.958399540597429E-2   -9.493913800658671E-3
 1.115000000000000E+10  -8.926554359002148E-4    1.537022993549363E-2
 1.116000000000000E+10   1.496347266056000E-2   -1.650251197162758E-2
 1.117000000000000E+10  -1.587219995456684E-2   -2.140282298595280E-2
 1.118000000000000E+10  -3.179040132720393E-2    1.949677690235559E-2
 1.119000000000000E+10   1.610269646951749E-2    4.692496621467965E-2
 1.120000000000000E+10   4.596919336028347E-2    1.491021328163861E-2
 1.121000000000000E+10   2.139416345729706E-2   -1.511629811042222E-2
 1.122000000000000E+10  -2.716634123345327E-3    1.457906874737267E-2
 1.123000000000000E+10   4.264630598918492E-2    1.942697921336984E-2
 1.124000000000000E+10   5.043833489665970E-2   -3.089256609500568E-2
 1.125000000000000E+10  -1.644156557564548E-3   -4.386626060327146E-2
 1.126000000000000E+10  -2.234998381017129E-2    2.992964094499679E-3
 1.127000000000000E+10   7.263803281544588E-3    1.797995983515950E-2
 1.128000000000000E+10   1.941064570288191E-2   -1.669181492649658E-3
 1.129000000000000E+10  -1.448499763989563E-2   -1.184775055216629E-2
 1.130000000000000E+10  -1.756968193798178E-2    3.068828145079805E-2
 1.131000000000000E+10   3.571764972225516E-2    4.935186441933722E-2
 1.132000000000000E+10   6.260628588799988E-2    3.015425424914244E-4
 1.133000000000000E+10   1.614211737697950E-2   -1.857825896265818E-2
 1.134000000000000E+10   6.209580566671806E-3    1.979717856492695E-2
 1.135000000000000E+10   4.331414472997284E-2    2.397978605080476E-2
 1.136000000000000E+10   4.681015652652456E-2   -3.083635089065256E-2
 1.137000000000000E+10  -1.184958989204875E-2   -3.319526348861308E-2
 1.138000000000000E+10  -7.316616777847443E-3    2.276958351671039E-2
 1.139000000000000E+10   3.955096722112799E-2    1.882279011480754E-2
 1.140000000000000E+10   3.749529024806417E-2   -2.258086715810317E-2
 1.141000000000000E+10  -8.189474245756693E-3   -2.726328147331218E-2
 1.142000000000000E+10  -9.132462289066352E-3    2.140586071524831E-2
 1.143000000000000E+10   4.183578937444080E-2    2.106238430307951E-2
 1.144000000000000E+10   3.775294924169444E-2   -3.998236965038197E-2
 1.145000000000000E+10  -1.632478252689596E-2   -2.095884302456723E-2
 1.146000000000000E+10  -9.784850015705700E-3    3.477446923367778E-2
 1.147000000000000E+10   4.363057364002767E-2    1.985383428090744E-2
 1.148000000000000E+10   2.270147446277925E-2   -3.063667514036517E-2
 1.149000000000000E+10  -1.989753166076628E-2   -2.093603350504262E-3
 1.150000000000000E+10   9.008579241413793E-3    3.975890009289981E-2
 1.151000000000000E+10   6.358386547258388E-2    8.033383094036291E-3
 1.152000000000000E+10   3.724562765423203E-2   -3.728886645964472E-2
 1.153000000000000E+10  -1.073631962022505E-2   -1.468084531734019E-2
 1.154000000000000E+10   4.496155635404367E-3    2.464185539396464E-2
 1.155000000000000E+10   3.992374692647146E-2   -4.344657743754397E-3
 1.156000000000000E+10   8.059832287272996E-3   -4.024165339723806E-2
 1.157000000000000E+10  -3.856424642357773E-2   -5.569270588832121E-3
 1.158000000000000E+10   2.014939474390896E-4    4.561148086943997E-2
 1.159000000000000E+10   4.347050181224976E-2    5.940108022945661E-3
 1.160000000000000E+10   5.247303592973182E-3   -1.389755688429813E-2
 1.161000000000000E+10  -2.112480246065578E-2    2.586025825839725E-2
 1.162000000000000E+10   3.362595561423885E-2    5.026703612143556E-2
 1.163000000000000E+10   6.675413972579759E-2    6.650821437573304E-3
 1.164000000000000E+10   4.111493274692541E-2   -2.846172380339762E-2
 1.165000000000000E+10   1.398725273717041E-2   -7.328322495522907E-3
 1.166000000000000E+10   4.445637191340409E-2    4.553973929864299E-3
 1.167000000000000E+10   4.993929017481246E-2   -3.974509222012792E-2
 1.168000000000000E+10  -6.592046877392789E-3   -6.644521504532602E-2
 1.169000000000000E+10  -4.968415484991454E-2   -2.513744788466535E-2
 1.170000000000000E+10  -1.837509015625808E-2    1.258646868145184E-2
 1.171000000000000E+10  -1.772377054784472E-3    4.210825534764084E-3
 1.172000000000000E+10  -3.420338086163101E-2    5.310691059098668E-3
 1.173000000000000E+10  -3.472378052662307E-2    6.653670567088399E-2
 1.174000000000000E+10   3.266423474118257E-2    8.848695034786121E-2
 1.175000000000000E+10   7.439249887637034E-2    4.251801546092895E-2
 1.176000000000000E+10   6.285081735769449E-2    3.667531295530622E-3
 1.177000000000000E+10   6.117106075048223E-2   -2.024436919279062E-3
 1.178000000000000E+10   7.694887859662354E-2   -1.926459459061589E-2
 1.179000000000000E+10   6.287509717818551E-2   -7.680125429816895E-2
 1.180000000000000E+10  -2.168695921603285E-2   -1.001124057986860E-1
 1.181000000000000E+10  -7.672116935853357E-2   -3.364310445095483E-2
 1.182000000000000E+10  -5.226496217457374E-2    2.592650076505479E-2
 1.183000000000000E+10  -3.190950609279563E-2    1.961387123182225E-2
 1.184000000000000E+10  -4.929450413014707E-2    4.817958410127991E-2
 1.185000000000000E+10  -1.424922960756923E-2    1.166493776409957E-1
 1.186000000000000E+10   7.424510336326205E-2    1.225330268216448E-1
 1.187000000000000E+10   1.286977167332064E-1    4.172807326966614E-2
 1.188000000000000E+10   1.030150324741155E-1   -1.770947015863577E-2
 1.189000000000000E+10   8.448811300351353E-2   -2.793012711152058E-2
 1.190000000000000E+10   9.911171422309147E-2   -6.865979034438512E-2
 1.191000000000000E+10   4.904608110413744E-2   -1.300881452566837E-1
 1.192000000000000E+10  -6.089046010114101E-2   -1.193220872507729E-1
 1.193000000000000E+10  -1.098600714791475E-1   -2.449428093319673E-2
 1.194000000000000E+10  -6.266941684983281E-2    3.432135587279105E-2
 1.195000000000000E+10  -4.618648584342854E-2    2.457545776876534E-2
 1.196000000000000E+10  -6.453929661772888E-2    6.742359316079205E-2
 1.197000000000000E+10   4.493232947357710E-4    1.302316157866152E-1
 1.198000000000000E+10   1.037690490656481E-1    9.867701062400634E-2
 1.199000000000000E+10   1.221909392934805E-1    4.892293824704930E-3
 1.200000000000000E+10   7.127768715562083E-2   -3.474402464633732E-2
 1.201000000000000E+10   6.410036252189295E-2   -3.457356462114632E-2
 1.202000000000000E+10   6.898618770391841E-2   -7.301707582580334E-2
 1.203000000000000E+10   2.459172707677309E-3   -1.265732398155509E-1
 1.204000000000000E+10  -9.527711443246097E-2   -7.824210283968387E-2
 1.205000000000000E+10  -8.758428396066037E-2    1.705740802792381E-2
 1.206000000000000E+10  -4.209277814783286E-2    3.910903812643643E-2
 1.207000000000000E+10  -4.883333444950447E-2    2.768431298009923E-2
 1.208000000000000E+10  -4.679746685146675E-2    7.072831904240012E-2
 1.209000000000000E+10   1.968540439579585E-2    1.045750085034442E-1
 1.210000000000000E+10   9.221079827964115E-2    5.934805128227254E-2
 1.211000000000000E+10   7.699589896050613E-2   -1.682888480107683E-2
 1.212000000000000E+10   3.745242839688899E-2   -1.392189396380504E-2
 1.213000000000000E+10   3.797607347202861E-2   -6.138188880231484E-3
 1.214000000000000E+10   4.755312251528925E-2   -4.468357613855575E-2
 1.215000000000000E+10  -5.318246923886293E-3   -8.035656727283308E-2
 1.216000000000000E+10  -6.190234735307343E-2   -3.559658922692384E-2
 1.217000000000000E+10  -4.801801863139751E-2    3.247425336788796E-2
 1.218000000000000E+10   1.177517848651318E-3    1.916710115852802E-2
 1.219000000000000E+10  -1.870735055053270E-2    3.902701036851166E-3
 1.220000000000000E+10  -3.559901445996513E-2    4.525018957631245E-2
 1.221000000000000E+10   2.324774749886540E-2    7.943805590578661E-2
 1.222000000000000E+10   7.483677655364751E-2    2.633036607015627E-2
 1.223000000000000E+10   5.714248846316606E-2   -2.173784281256113E-2
 1.224000000000000E+10   1.389862620593865E-2   -7.255306700068034E-3
 1.225000000000000E+10   5.058891916581076E-2    8.001316345880237E-3
 1.226000000000000E+10   6.306968320022303E-2   -5.103100892858230E-2
 1.227000000000000E+10  -2.661283232134050E-3   -8.600802511650778E-2
 1.228000000000000E+10  -5.666783604048121E-2   -4.176022840108225E-2
 1.229000000000000E+10  -2.716341307975876E-2    3.043359311181187E-3
 1.230000000000000E+10  -2.451429225109640E-3   -1.631770156968172E-2
 1.231000000000000E+10  -5.338880033528122E-2   -1.665532987044417E-2
 1.232000000000000E+10  -6.190357575248812E-2    5.253103692331344E-2
 1.233000000000000E+10   1.113506202282033E-2    7.977284127372856E-2
 1.234000000000000E+10   5.007481118033584E-2    3.284009826391861E-2
 1.235000000000000E+10   2.424124124271445E-2   -7.969115421123550E-3
 1.236000000000000E+10   1.952028693679864E-2    2.185964440418840E-2
 1.237000000000000E+10   7.138862007971386E-2    1.054832315110402E-2
 1.238000000000000E+10   6.361310599481500E-2   -5.807800453881271E-2
 1.239000000000000E+10  -7.074987062365363E-3   -8.893765440618331E-2
 1.240000000000000E+10  -5.708353722589711E-2   -3.425761681719926E-2
 1.241000000000000E+10  -2.506489632874044E-2   -6.312466425547317E-4
 1.242000000000000E+10  -2.736723361030210E-2   -2.969422922308128E-2
 1.243000000000000E+10  -7.679358504226494E-2   -9.499426677008257E-3
 1.244000000000000E+10  -6.414521173903125E-2    7.254858301664639E-2
 1.245000000000000E+10   1.494671620974415E-2    8.823870250208347E-2
 1.246000000000000E+10   4.078838172996242E-2    2.838010526531194E-2
 1.247000000000000E+10   9.105769846905854E-3    1.249696535782547E-2
 1.248000000000000E+10   2.948648886279193E-2    3.903276763179066E-2
 1.249000000000000E+10   7.431509667693680E-2    5.632651331231234E-3
 1.250000000000000E+10   5.853249037047580E-2   -6.372222023004256E-2
