#  HZ   S   RI   R     50.00 
! Rohde & Schwarz Vector Network Analyzer 
! Rohde-Schwarz,ZNA43-4Port,1332450044101932,2.92
! Created: UTC 6/9/2026, 6:48:15 AM
! freq[Hz]                re:S11                  im:S11
 8.000000000000000E9    -1.690363376058829E-1   -1.924669465288952E-1
 8.010000000000000E9    -2.161413786487849E-1   -6.859844369638746E-2
 8.020000000000000E9    -2.098850473941334E-1    3.779713576847527E-2
 8.030000000000000E9    -1.764374054815600E-1    1.251908988257393E-1
 8.040000000000000E9    -8.573709485372512E-2    2.082969510211946E-1
 8.050000000000000E9     4.364189567440973E-2    2.433967802884749E-1
 8.060000000000000E9     1.415859681914874E-1    1.735199915249456E-1
 8.070000000000000E9     1.927977604456533E-1    8.951875190548418E-2
 8.080000000000000E9     2.335484394863011E-1    9.576310995851340E-3
 8.090000000000000E9     2.195848290398577E-1   -1.058957205059989E-1
 8.100000000000000E9     1.277558712916916E-1   -2.147472920016009E-1
 8.110000000000000E9     1.565548282584169E-3   -2.332547765286368E-1
 8.120000000000000E9    -9.694870324624759E-2   -1.908387509662172E-1
 8.130000000000000E9    -1.866502220874895E-1   -1.253645295438399E-1
 8.140000000000000E9    -2.435714919059183E-1   -1.395745575532190E-2
 8.150000000000000E9    -2.024117649987273E-1    1.217531250332674E-1
 8.160000000000000E9    -9.776352080472553E-2    2.246526904174675E-1
 8.170000000000000E9     1.277108525802270E-2    2.387516577956043E-1
 8.180000000000000E9     1.244093057609984E-1    2.062537873504600E-1
 8.190000000000000E9     2.244305857392481E-1    1.367112997315720E-1
 8.200000000000000E9     2.640200801731603E-1    1.058745530829900E-2
 8.210000000000000E9     2.178170492698534E-1   -1.477691787230085E-1
 8.220000000000000E9     1.171090526770052E-1   -2.090639115354326E-1
 8.230000000000000E9     1.787093394080829E-2   -2.218646113368594E-1
 8.240000000000000E9    -1.057900438380572E-1   -2.039819123872584E-1
 8.250000000000000E9    -2.125696567466324E-1   -1.095047124667861E-1
 8.260000000000000E9    -2.180261865158227E-1    3.829327109205433E-2
 8.270000000000000E9    -1.538274088942074E-1    1.467453533980310E-1
 8.280000000000000E9    -7.323887093678723E-2    1.877651187527753E-1
 8.290000000000000E9     3.263303233662927E-2    2.091521871126257E-1
 8.300000000000000E9     1.602586975472564E-1    1.822694298652331E-1
 8.310000000000000E9     2.147474559535174E-1    6.371075382426042E-2
 8.320000000000000E9     1.930969940340205E-1   -5.831336021105771E-2
 8.330000000000000E9     1.429776089707810E-1   -1.163828512373883E-1
 8.340000000000000E9     7.870962952801884E-2   -1.609943252141622E-1
 8.350000000000000E9    -2.826632113035196E-2   -1.826378868737251E-1
 8.360000000000000E9    -1.202502494015826E-1   -1.233787410187740E-1
 8.370000000000000E9    -1.391273696744612E-1   -8.404700010175660E-3
 8.380000000000000E9    -1.108505853718960E-1    6.020183097912904E-2
 8.390000000000000E9    -9.235925900600062E-2    9.189369164033848E-2
 8.400000000000000E9    -1.818597195180616E-2    1.515341828874965E-1
 8.410000000000000E9     8.172781836663502E-2    1.463533283146475E-1
 8.420000000000000E9     1.261155734829522E-1    7.236496473121931E-2
 8.430000000000000E9     1.403967784709707E-1    6.552377023704793E-3
 8.440000000000000E9     1.313264131322764E-1   -3.188682217994897E-2
 8.450000000000000E9     1.091303841093542E-1   -7.823848224081961E-2
 8.460000000000000E9     3.675322076515630E-2   -1.309722337206861E-1
 8.470000000000000E9    -2.843592153187746E-2   -1.166699924485227E-1
 8.480000000000000E9    -6.139184877726465E-2   -5.173780394243205E-2
 8.490000000000000E9    -7.018550666901567E-2   -2.397353486561173E-2
 8.500000000000000E9    -8.221706650222207E-2    6.137476416517740E-3
 8.510000000000000E9    -5.548966227205791E-2    7.848549400396483E-2
 8.520000000000000E9     7.268103151171271E-3    1.012298594032365E-1
 8.530000000000000E9     4.589064728670839E-2    6.086246955356688E-2
 8.540000000000000E9     5.432601021637259E-2    3.970228659104705E-2
 8.550000000000000E9     9.322837884066394E-2    3.750075489110931E-2
 8.560000000000000E9     1.011839647426372E-1   -1.713526037131052E-2
 8.570000000000000E9     5.280654129387138E-2   -7.307379374310213E-2
 8.580000000000000E9     2.069970032582584E-2   -5.058076539692816E-2
 8.590000000000000E9     1.198308479495611E-3   -3.619471775230305E-2
 8.600000000000000E9    -2.515950835253683E-2   -4.688112510752096E-2
 8.610000000000000E9    -4.733513460288422E-2   -1.949830733651300E-2
 8.620000000000000E9    -3.198510330215164E-2    4.570054597919954E-2
 8.630000000000000E9     1.378845712179985E-2    6.408308160990003E-2
 8.640000000000000E9     4.010209628535710E-2    2.515462655025185E-2
 8.650000000000000E9     3.525590039084775E-2    2.678154966010852E-2
 8.660000000000000E9     7.032901093999588E-2    2.592580222495541E-2
 8.670000000000000E9     7.067951641502390E-2   -3.763719540651610E-2
 8.680000000000000E9     2.191953155231992E-2   -6.962632344338690E-2
 8.690000000000000E9    -7.268028336630037E-3   -3.137357387103851E-2
 8.700000000000000E9     6.587812586583621E-4   -5.961627283818622E-3
 8.710000000000000E9    -1.664223923795372E-2   -2.750950995443014E-2
 8.720000000000000E9    -3.530315670734890E-2    3.187895761697978E-3
 8.730000000000000E9    -2.505738446524169E-3    5.557524384573007E-2
 8.740000000000000E9     3.981077491880785E-2    2.890187407857658E-2
 8.750000000000000E9     3.323407723715109E-2   -8.274593742665140E-3
 8.760000000000000E9     3.200636408329160E-2    2.789811706640205E-3
 8.770000000000000E9     4.258284744357423E-2    1.164911443585768E-3
 8.780000000000000E9     2.244664878724760E-2   -4.092117428921286E-2
 8.790000000000000E9    -1.488142703294130E-2   -4.680988806987493E-2
 8.800000000000000E9    -3.706361420457328E-2    3.927196628194879E-3
 8.810000000000000E9    -6.118944506590747E-3    2.721342762552210E-2
 8.820000000000000E9    -9.719568881640321E-3    5.135118590482808E-3
 8.830000000000000E9    -4.660085149694981E-3    3.970745137641504E-2
 8.840000000000000E9     3.140102828098167E-2    6.364432536161684E-2
 8.850000000000000E9     5.778373797610626E-2    1.716355492396354E-2
 8.860000000000000E9     3.997419039519254E-2   -1.169230588247706E-2
 8.870000000000000E9     3.631604140125042E-2    1.578993165908380E-3
 8.880000000000000E9     4.388895698956748E-2   -5.770150006814039E-3
 8.890000000000000E9     3.125208728282271E-2   -3.619984898667684E-2
 8.900000000000000E9     1.088719757261810E-2   -3.281198104400656E-2
 8.910000000000000E9     6.328388977153609E-3   -4.939485560592973E-3
 8.920000000000000E9     1.019874528744211E-2   -2.081536821058886E-2
 8.930000000000000E9    -9.545620482672780E-3   -4.124548343501080E-2
 8.940000000000000E9    -2.559241507053568E-2   -1.588425142656494E-2
 8.950000000000000E9    -3.051367144411950E-2    2.241112881168625E-2
 8.960000000000000E9    -1.940901258241737E-2    2.075284322307387E-2
 8.970000000000000E9    -2.218938442629452E-2    2.971281026178727E-2
 8.980000000000000E9    -5.202520336999070E-3    7.922330761211231E-2
 8.990000000000000E9     4.429021711840529E-2    7.688006139475505E-2
 9.000000000000000E9     8.059630749391927E-2    2.307758012645706E-2
 9.010000000000000E9     8.321431518970800E-2    4.133847833129084E-3
 9.020000000000000E9     9.179023258217754E-2   -1.652683951855423E-2
 9.030000000000000E9     7.067532889443720E-2   -8.420681025750212E-2
 9.040000000000000E9     1.144278759040541E-2   -1.170822870345320E-1
 9.050000000000000E9    -6.224142123443972E-2   -8.339453162444234E-2
 9.060000000000000E9    -9.863032664626775E-2   -3.424312754780877E-2
 9.070000000000000E9    -1.038520884056295E-1    1.268593452585008E-2
 9.080000000000000E9    -9.100394693783118E-2    7.732211358148994E-2
 9.090000000000000E9    -4.201265165367702E-2    1.502830649403046E-1
 9.100000000000000E9     6.058356287476756E-2    1.553192795664693E-1
 9.110000000000000E9     1.361679282605284E-1    9.056083488838004E-2
 9.120000000000000E9     1.552890197854000E-1    2.357869186765421E-2
 9.130000000000000E9     1.572929594273548E-1   -4.373488971916176E-2
 9.140000000000000E9     1.236753083570621E-1   -1.448824261890476E-1
 9.150000000000000E9     2.318408316431957E-2   -1.899818949501810E-1
 9.160000000000000E9    -9.143845153319187E-2   -1.455085051371466E-1
 9.170000000000000E9    -1.501454201771370E-1   -7.751708575058465E-2
 9.180000000000000E9    -1.732018160891637E-1   -5.084935156094920E-3
 9.190000000000000E9    -1.641304174386645E-1    1.032718845131955E-1
 9.200000000000000E9    -8.887649347165666E-2    1.878828692666269E-1
 9.210000000000000E9     3.425111242522764E-2    1.999073942250894E-1
 9.220000000000000E9     1.274468061696511E-1    1.512216834445740E-1
 9.230000000000000E9     1.805202040527743E-1    8.478231010896423E-2
 9.240000000000000E9     1.928318504845926E-1   -9.536984054507839E-3
 9.250000000000000E9     1.718083500772018E-1   -1.175961294938202E-1
 9.260000000000000E9     7.520795883177211E-2   -1.853324314580161E-1
 9.270000000000000E9    -3.519037870770683E-2   -1.728290065997295E-1
 9.280000000000000E9    -1.086811955156030E-1   -1.254104602261009E-1
 9.290000000000000E9    -1.439597716167947E-1   -6.641897481064341E-2
 9.300000000000000E9    -1.745984570582029E-1    3.428271596725759E-2
 9.310000000000000E9    -1.312113123783377E-1    1.259637997824590E-1
 9.320000000000000E9    -4.493699617579124E-2    1.652357461335753E-1
 9.330000000000000E9     4.399878200690795E-2    1.640924427452403E-1
 9.340000000000000E9     1.078029004528758E-1    1.319932491730613E-1
 9.350000000000000E9     1.591175973355342E-1    7.154521060088410E-2
 9.360000000000000E9     1.847781334371010E-1   -1.525617859615193E-2
 9.370000000000000E9     1.433847578079502E-1   -1.029507942816515E-1
 9.380000000000000E9     5.810760087130384E-2   -1.499369693820361E-1
 9.390000000000000E9    -1.274243066880413E-2   -1.564385202057738E-1
 9.400000000000000E9    -6.895311985156270E-2   -1.451167984379662E-1
 9.410000000000000E9    -1.525884811557596E-1   -9.024651748530556E-2
 9.420000000000000E9    -1.850847570570084E-1    1.069211369355316E-2
 9.430000000000000E9    -1.342042019207104E-1    1.022738431364668E-1
 9.440000000000000E9    -7.791982370144332E-2    1.442864701041136E-1
 9.450000000000000E9    -2.303646605881077E-2    1.798688873976437E-1
 9.460000000000000E9     8.691742786869497E-2    1.806746458799905E-1
 9.470000000000000E9     1.767970274680129E-1    1.043607966131647E-1
 9.480000000000000E9     1.922171743291549E-1    5.817775650237427E-3
 9.490000000000000E9     1.654969439515883E-1   -7.592995004048166E-2
 9.500000000000000E9     1.209868467411532E-1   -1.467607865472272E-1
 9.510000000000000E9     3.198959735104678E-2   -1.982458441808949E-1
 9.520000000000000E9    -9.063227651855668E-2   -1.929898270182946E-1
 9.530000000000000E9    -1.721621790858406E-1   -1.095942349089971E-1
 9.540000000000000E9    -1.857310026130771E-1   -1.496924221824982E-2
 9.550000000000000E9    -1.761909910775711E-1    7.597448179113542E-2
 9.560000000000000E9    -1.421177031019502E-1    1.607253507464954E-1
 9.570000000000000E9    -2.613814930474284E-2    2.218112408606795E-1
 9.580000000000000E9     8.992051866560023E-2    1.924104173770880E-1
 9.590000000000000E9     1.548354931704320E-1    1.118073847734670E-1
 9.600000000000000E9     1.783217712188679E-1    3.663888182370836E-2
 9.610000000000000E9     1.930641340692865E-1   -5.573571620050051E-2
 9.620000000000000E9     1.274911194064577E-1   -1.457079479901913E-1
 9.630000000000000E9     1.635028324846796E-2   -1.875493704485758E-1
 9.640000000000000E9    -6.868237000974999E-2   -1.522416317640514E-1
 9.650000000000000E9    -1.246191031207343E-1   -1.018996054314900E-1
 9.660000000000000E9    -1.630804336329207E-1   -3.385311630332496E-2
 9.670000000000000E9    -1.691272669284129E-1    5.281404772534033E-2
 9.680000000000000E9    -1.142152019218932E-1    1.410049922331737E-1
 9.690000000000000E9    -2.699066668577325E-2    1.713388404197803E-1
 9.700000000000000E9     4.038664240108802E-2    1.527413679431285E-1
 9.710000000000000E9     9.335013653046077E-2    1.295365297442153E-1
 9.720000000000000E9     1.641219885486240E-1    8.175797365489727E-2
 9.730000000000000E9     1.837327881768458E-1   -2.285375663837644E-2
 9.740000000000000E9     1.266309220134413E-1   -1.060898281389279E-1
 9.750000000000000E9     7.482302562688814E-2   -1.277939371740057E-1
 9.760000000000000E9     2.220534230010926E-2   -1.523762612031866E-1
 9.770000000000000E9    -7.409933739302181E-2   -1.627184984166709E-1
 9.780000000000000E9    -1.568745516678145E-1   -9.676523072647317E-2
 9.790000000000000E9    -1.744607552406759E-1    2.249789513386330E-3
 9.800000000000000E9    -1.466184892863794E-1    7.349615981182704E-2
 9.810000000000000E9    -1.134505642849156E-1    1.308817762212181E-1
 9.820000000000000E9    -3.965518998858378E-2    1.941563232658327E-1
 9.830000000000000E9     7.816803867694838E-2    2.047400697231597E-1
 9.840000000000000E9     1.699777768697683E-1    1.222592741541554E-1
 9.850000000000000E9     1.905516658420632E-1    2.392694157237340E-2
 9.860000000000000E9     1.888852736963006E-1   -5.177118834573358E-2
 9.870000000000000E9     1.616600045714830E-1   -1.500259158877956E-1
 9.880000000000000E9     5.096817024670026E-2   -2.321016510095004E-1
 9.890000000000000E9    -8.676409584805600E-2   -2.092718692661665E-1
 9.900000000000000E9    -1.658542861967817E-1   -1.213493122853359E-1
 9.910000000000000E9    -2.017584534642911E-1   -4.401979516065219E-2
 9.920000000000000E9    -2.190141707079221E-1    5.797830907113304E-2
 9.930000000000000E9    -1.549299006128002E-1    1.821633425586955E-1
 9.940000000000000E9    -2.247662835721528E-2    2.382267102568309E-1
 9.950000000000000E9     9.266937193204766E-2    2.007656597146671E-1
 9.960000000000000E9     1.684878053268432E-1    1.363134033386166E-1
 9.970000000000000E9     2.163750508225433E-1    4.856004842095683E-2
 9.980000000000000E9     2.213274790769052E-1   -7.938042109496547E-2
 9.990000000000000E9     1.412970049861287E-1   -1.929813046871172E-1
 1.000000000000000E+10   1.671356461528893E-2   -2.249130165548334E-1
 1.001000000000000E+10  -8.608568539116651E-2   -1.872950720758439E-1
 1.002000000000000E+10  -1.621376959003517E-1   -1.325318560505353E-1
 1.003000000000000E+10  -2.175073645662180E-1   -3.975517342872650E-2
 1.004000000000000E+10  -2.137067508956035E-1    9.810823078625723E-2
 1.005000000000000E+10  -1.132251997822325E-1    1.860198386386439E-1
 1.006000000000000E+10  -6.009094722559066E-3    1.944960981527221E-1
 1.007000000000000E+10   7.275111343497705E-2    1.749619378598062E-1
 1.008000000000000E+10   1.532592137587506E-1    1.378019352039909E-1
 1.009000000000000E+10   2.111867923504691E-1    2.238751553556685E-2
 1.010000000000000E+10   1.770983451296559E-1   -8.737739945375585E-2
 1.011000000000000E+10   9.279142645237820E-2   -1.511351699701469E-1
 1.012000000000000E+10   2.519210628742107E-2   -1.636992065590771E-1
 1.013000000000000E+10  -4.712938819321773E-2   -1.650677469530986E-1
 1.014000000000000E+10  -1.350647945633803E-1   -1.208876533170440E-1
 1.015000000000000E+10  -1.821045276275073E-1   -1.591555818980570E-2
 1.016000000000000E+10  -1.359439682807704E-1    7.262673765919118E-2
 1.017000000000000E+10  -8.012147812064543E-2    1.035275351985186E-1
 1.018000000000000E+10  -5.193806528998941E-2    1.353119024233885E-1
 1.019000000000000E+10   3.455934263125303E-2    1.541932795838088E-1
 1.020000000000000E+10   1.243871779428438E-1    1.086992658549530E-1
 1.021000000000000E+10   1.379152026562988E-1    2.039286203092726E-2
 1.022000000000000E+10   1.100037103724869E-1   -1.924514289186799E-2
 1.023000000000000E+10   1.108179625194165E-1   -6.695270843715072E-2
 1.024000000000000E+10   7.597146718282070E-2   -1.246400515513242E-1
 1.025000000000000E+10  -2.518527406762833E-2   -1.448977523896875E-1
 1.026000000000000E+10  -7.962130851622198E-2   -9.608542522653443E-2
 1.027000000000000E+10  -9.127409312475741E-2   -4.625133960591823E-2
 1.028000000000000E+10  -1.078579200848981E-1   -1.480600647661230E-2
 1.029000000000000E+10  -1.204696123474562E-1    5.413926517868192E-2
 1.030000000000000E+10  -6.909362463863082E-2    1.179089237899716E-1
 1.031000000000000E+10   1.898183909303291E-2    1.260789603720889E-1
 1.032000000000000E+10   5.791086445725246E-2    8.755568147898037E-2
 1.033000000000000E+10   8.657094571048388E-2    6.473633156692128E-2
 1.034000000000000E+10   1.347932042663363E-1    2.330108188227282E-2
 1.035000000000000E+10   1.377029555957184E-1   -6.126303723111721E-2
 1.036000000000000E+10   6.253047764784357E-2   -1.201458310725626E-1
 1.037000000000000E+10   3.133587179056158E-3   -1.225444137070653E-1
 1.038000000000000E+10  -3.341619138001602E-2   -1.147078280578690E-1
 1.039000000000000E+10  -9.689663446595724E-2   -1.010385721239593E-1
 1.040000000000000E+10  -1.437977441409505E-1   -3.340816677503598E-2
 1.041000000000000E+10  -1.281399122716773E-1    5.592065829772181E-2
 1.042000000000000E+10  -7.675312974541187E-2    9.925836897946839E-2
 1.043000000000000E+10  -2.966303621119169E-2    1.178017936563589E-1
 1.044000000000000E+10   1.879879709250809E-2    1.222477140565434E-1
 1.045000000000000E+10   9.730868567713495E-2    1.059114016560107E-1
 1.046000000000000E+10   1.394115832650642E-1    2.904286499856396E-2
 1.047000000000000E+10   1.175018792475217E-1   -4.573182640332052E-2
 1.048000000000000E+10   7.390108152766309E-2   -7.421697876777383E-2
 1.049000000000000E+10   4.726787554354425E-2   -1.014434963191931E-1
 1.050000000000000E+10  -1.609316487700638E-2   -1.256572655377929E-1
 1.051000000000000E+10  -9.520391066114178E-2   -9.356311027422907E-2
 1.052000000000000E+10  -1.060994341063306E-1   -1.260977031913969E-2
 1.053000000000000E+10  -8.769593243503306E-2    2.209095684944120E-2
 1.054000000000000E+10  -7.694266551910281E-2    5.623887678431345E-2
 1.055000000000000E+10  -4.744869227788487E-2    1.111322251972087E-1
 1.056000000000000E+10   2.438161366183440E-2    1.204784328742877E-1
 1.057000000000000E+10   8.151878863575440E-2    8.153019351201983E-2
 1.058000000000000E+10   9.475979447455302E-2    3.123305982340317E-2
 1.059000000000000E+10   1.012700302544441E-1    2.668548807921373E-3
 1.060000000000000E+10   1.019376093173686E-1   -4.285119812598489E-2
 1.061000000000000E+10   7.110302100968895E-2   -1.044659807080649E-1
 1.062000000000000E+10  -9.433715377092162E-3   -1.132498824637502E-1
 1.063000000000000E+10  -5.200167242708060E-2   -7.444798973895976E-2
 1.064000000000000E+10  -6.695216304605862E-2   -4.977132298946173E-2
 1.065000000000000E+10  -1.027731030504270E-1   -2.661590243006485E-2
 1.066000000000000E+10  -1.052171837619003E-1    5.636511692500466E-2
 1.067000000000000E+10  -4.890198891781711E-2    1.139958718960449E-1
 1.068000000000000E+10   1.841058028087093E-2    1.120437134368270E-1
 1.069000000000000E+10   4.988523962905299E-2    1.012067227433161E-1
 1.070000000000000E+10   1.033974316035051E-1    8.366573858931715E-2
 1.071000000000000E+10   1.519342083846950E-1    2.300274000205639E-2
 1.072000000000000E+10   1.446239338351060E-1   -6.796247207764317E-2
 1.073000000000000E+10   8.854971799657821E-2   -1.163932392626915E-1
 1.074000000000000E+10   2.473221113512810E-2   -1.296745524235577E-1
 1.075000000000000E+10  -2.702825862554920E-2   -1.222005468542309E-1
 1.076000000000000E+10  -9.809613531153667E-2   -9.891830936809889E-2
 1.077000000000000E+10  -1.353302587488154E-1   -2.174962204471581E-2
 1.078000000000000E+10  -1.072516483649433E-1    6.801736991801063E-2
 1.079000000000000E+10  -3.861311771059005E-2    9.396566649126739E-2
 1.080000000000000E+10   4.086006481371618E-3    1.041622677391478E-1
 1.081000000000000E+10   5.929386709701480E-2    1.082272232129017E-1
 1.082000000000000E+10   1.274324396367893E-1    6.014386522331702E-2
 1.083000000000000E+10   1.310288213919377E-1   -3.083749817385936E-2
 1.084000000000000E+10   8.901698752505795E-2   -8.482177370365492E-2
 1.085000000000000E+10   4.703858441662721E-2   -1.016975261412025E-1
 1.086000000000000E+10  -4.413978050917774E-3   -1.151054177055092E-1
 1.087000000000000E+10  -6.814578826774176E-2   -9.542226978834796E-2
 1.088000000000000E+10  -1.117601301163075E-1   -3.133237058798032E-2
 1.089000000000000E+10  -9.282267208777406E-2    4.102656918781736E-2
 1.090000000000000E+10  -5.377373829354831E-2    7.555614597215821E-2
 1.091000000000000E+10  -8.638189680792725E-3    8.050449739300836E-2
 1.092000000000000E+10   3.823314047477643E-2    9.136008653035893E-2
 1.093000000000000E+10   9.100881316499657E-2    6.857961541440795E-2
 1.094000000000000E+10   1.148852068817724E-1    5.139445451720686E-4
 1.095000000000000E+10   7.334267212029667E-2   -4.928252183133923E-2
 1.096000000000000E+10   5.357198936637193E-2   -5.229250162177860E-2
 1.097000000000000E+10   3.228959053370024E-2   -7.211929496456690E-2
 1.098000000000000E+10  -1.329174227983642E-2   -8.963168370377195E-2
 1.099000000000000E+10  -5.304934305723740E-2   -4.265107114514864E-2
 1.100000000000000E+10  -4.202081393656928E-2    5.074681086706793E-4
 1.101000000000000E+10  -2.765992491844817E-2    1.432956854478168E-2
 1.102000000000000E+10  -2.506371056048348E-2    1.717718036575653E-2
 1.103000000000000E+10  -1.012636062942303E-2    3.848720406711452E-2
 1.104000000000000E+10   2.087774567298140E-2    4.047880574489159E-2
 1.105000000000000E+10   4.178767861320403E-2    7.207461550504418E-3
 1.106000000000000E+10   1.966788279660666E-2   -4.524993065484275E-3
 1.107000000000000E+10   1.910471596633405E-2    1.492347877186577E-2
 1.108000000000000E+10   3.634287969171676E-2    3.522954394000730E-3
 1.109000000000000E+10   2.687476844939377E-2   -1.952849874360273E-2
 1.110000000000000E+10   6.624048778369064E-3   -1.504269627021156E-2
 1.111000000000000E+10   1.869347414309700E-2    3.526642898601186E-3
 1.112000000000000E+10   3.605440801157070E-2   -1.722819761305635E-2
 1.113000000000000E+10   9.533101043354555E-3   -3.208510291426145E-2
 1.114000000000000E+10  -4.263066898450621E-3   -9.098589364177463E-3
 1.115000000000000E+10  -1.485879939042087E-3   -3.665203532164284E-3
 1.116000000000000E+10  -2.143964664237701E-3   -1.574010710636866E-2
 1.117000000000000E+10  -1.599506178732166E-2   -5.161889319146960E-3
 1.118000000000000E+10  -1.474992901936565E-2    2.266135500654941E-2
 1.119000000000000E+10   1.833818394477444E-2    2.614113532235692E-2
 1.120000000000000E+10   2.606473300790358E-2    1.137051776346090E-2
 1.121000000000000E+10   1.541046169016123E-2    7.841124529098804E-3
 1.122000000000000E+10   2.410582645087572E-2    1.985262369166152E-2
 1.123000000000000E+10   4.623499753098962E-2   -1.004345958406350E-2
 1.124000000000000E+10   2.097529709151967E-2   -3.193722774340416E-2
 1.125000000000000E+10  -3.514737256431471E-3   -1.259971857558964E-2
 1.126000000000000E+10   1.005804299972346E-2    1.449002983931156E-3
 1.127000000000000E+10   7.770089819929097E-3   -1.279923619811088E-2
 1.128000000000000E+10  -1.679738896953299E-2   -2.647222718336312E-3
 1.129000000000000E+10  -1.172823914804607E-2    2.807086098710874E-2
 1.130000000000000E+10   2.128821434888393E-2    2.150760588025577E-2
 1.131000000000000E+10   2.752190411754775E-2    9.683434046335431E-3
 1.132000000000000E+10   1.975171364353915E-2    1.347096358721599E-2
 1.133000000000000E+10   3.154346882060671E-2    2.229030692602618E-2
 1.134000000000000E+10   4.727692184262421E-2   -1.645389810545953E-3
 1.135000000000000E+10   2.119203171253259E-2   -1.660133699495842E-2
 1.136000000000000E+10   7.286527449880610E-3   -7.434596395765269E-3
 1.137000000000000E+10   1.927585119457837E-2    7.421558705516430E-3
 1.138000000000000E+10   3.217390755291392E-2   -1.056303210229566E-2
 1.139000000000000E+10   6.434128588640956E-3   -1.541036737543456E-2
 1.140000000000000E+10   4.345797708059729E-3    1.417983320879004E-2
 1.141000000000000E+10   3.227247258027513E-2    5.251260002647026E-3
 1.142000000000000E+10   2.051011717166831E-2   -1.809579151132696E-2
 1.143000000000000E+10   4.788771922390574E-4   -2.316699124170806E-3
 1.144000000000000E+10   1.312253901749862E-2    3.160507787653036E-3
 1.145000000000000E+10   2.713994722226434E-2   -1.546411375846297E-3
 1.146000000000000E+10   8.515220856729662E-3   -8.708332235983805E-3
 1.147000000000000E+10  -2.783881608011935E-3    4.991215185569588E-3
 1.148000000000000E+10   1.126130288223653E-2    1.679889410801296E-2
 1.149000000000000E+10   2.867961880895574E-2    3.200494424001830E-3
 1.150000000000000E+10   1.614905232366820E-2   -5.170121083598553E-3
 1.151000000000000E+10   1.540307061854144E-2    7.012371213816523E-3
 1.152000000000000E+10   4.035373815847627E-2    7.462636799336677E-3
 1.153000000000000E+10   3.420332264839923E-2   -1.604850681331422E-2
 1.154000000000000E+10   6.674136161489902E-4   -1.680905597976123E-2
 1.155000000000000E+10  -3.274538347573154E-3    2.906156195520219E-3
 1.156000000000000E+10   1.876457999982904E-2   -2.249674565265596E-3
 1.157000000000000E+10   2.567559224573587E-4   -1.222787542178831E-2
 1.158000000000000E+10  -1.112627502461257E-2    1.117308804121795E-2
 1.159000000000000E+10   1.256990864437356E-2    2.302768223703868E-2
 1.160000000000000E+10   1.868515735121625E-2    1.484964817114510E-2
 1.161000000000000E+10   8.538823184323297E-3    1.511594556049860E-2
 1.162000000000000E+10   1.832661633909770E-2    2.539578194058136E-2
 1.163000000000000E+10   4.514834489827868E-2    2.067577425740427E-2
 1.164000000000000E+10   5.391475921627326E-2   -2.417126483012037E-3
 1.165000000000000E+10   3.679947070366859E-2   -1.958986245709282E-2
 1.166000000000000E+10   3.052148536711720E-2   -1.388216913488504E-2
 1.167000000000000E+10   2.999853309043880E-2   -2.911888598528461E-2
 1.168000000000000E+10   4.000123573368375E-3   -4.573910975098329E-2
 1.169000000000000E+10  -3.202858208620644E-2   -3.451206484222506E-2
 1.170000000000000E+10  -2.653858558424261E-2   -2.979101821955488E-3
 1.171000000000000E+10  -1.950711437742565E-2    1.127284140020050E-2
 1.172000000000000E+10  -2.906782654181463E-2    2.408218594858222E-2
 1.173000000000000E+10  -1.754830769113976E-2    6.145403484524876E-2
 1.174000000000000E+10   2.746128904492922E-2    7.275490619179364E-2
 1.175000000000000E+10   5.563727619531698E-2    4.574985178277918E-2
 1.176000000000000E+10   6.419900372552247E-2    2.238354698878627E-2
 1.177000000000000E+10   8.145369415823032E-2   -3.849431497490966E-3
 1.178000000000000E+10   7.494622838721990E-2   -3.915902133610998E-2
 1.179000000000000E+10   3.847416317307783E-2   -7.799499783607990E-2
 1.180000000000000E+10  -2.222718810548318E-2   -7.589709179772733E-2
 1.181000000000000E+10  -5.048201505366964E-2   -3.199706828426643E-2
 1.182000000000000E+10  -5.184017792536121E-2   -4.579601693721369E-3
 1.183000000000000E+10  -6.827798694870993E-2    2.239794433216693E-2
 1.184000000000000E+10  -4.499838087116445E-2    8.008297006676733E-2
 1.185000000000000E+10   1.828738391685850E-2    1.114345652349915E-1
 1.186000000000000E+10   6.592732781896934E-2    8.460473544348775E-2
 1.187000000000000E+10   9.300954089108135E-2    5.267149128314324E-2
 1.188000000000000E+10   1.117500984261714E-1    1.436673278246730E-2
 1.189000000000000E+10   1.223006076712035E-1   -3.940659718555577E-2
 1.190000000000000E+10   8.104209820505962E-2   -1.102106770978136E-1
 1.191000000000000E+10   1.086339709781655E-2   -1.129512939490246E-1
 1.192000000000000E+10  -3.841969971802235E-2   -8.083971542642605E-2
 1.193000000000000E+10  -7.274064649881830E-2   -5.327170388546779E-2
 1.194000000000000E+10  -8.996891359365675E-2   -1.950921230797525E-3
 1.195000000000000E+10  -8.186550587441416E-2    4.932526043437403E-2
 1.196000000000000E+10  -3.332896802470346E-2    1.018457028351589E-1
 1.197000000000000E+10   3.576985796368372E-2    9.303691903895303E-2
 1.198000000000000E+10   6.871060383574500E-2    6.420371660860828E-2
 1.199000000000000E+10   9.271378222179415E-2    4.185539838868550E-2
 1.200000000000000E+10   1.097148711460803E-1   -8.997367081417526E-3
 1.201000000000000E+10   8.762372255969227E-2   -7.698674018039413E-2
 1.202000000000000E+10   3.166022260263310E-2   -9.920553246552272E-2
 1.203000000000000E+10  -2.121802944910001E-2   -8.477625819817215E-2
 1.204000000000000E+10  -5.061561171487758E-2   -6.021041395045900E-2
 1.205000000000000E+10  -6.903270292683034E-2   -3.178233041377410E-2
 1.206000000000000E+10  -8.968389942605136E-2    2.324996271318679E-2
 1.207000000000000E+10  -5.652796493034293E-2    7.446751652371460E-2
 1.208000000000000E+10   5.007398046259459E-4    7.410979253312298E-2
 1.209000000000000E+10   2.702570545226408E-2    5.831132835866661E-2
 1.210000000000000E+10   4.648054600314849E-2    5.461077335845920E-2
 1.211000000000000E+10   7.559219495780109E-2    2.726523626046991E-2
 1.212000000000000E+10   8.405461229569629E-2   -1.591366811381918E-2
 1.213000000000000E+10   3.682551402942743E-2   -5.222824372542655E-2
 1.214000000000000E+10   2.852692630767368E-3   -3.490341882220236E-2
 1.215000000000000E+10   4.825573511502773E-3   -4.174377324540272E-2
 1.216000000000000E+10  -2.299637416704935E-2   -4.450948530085020E-2
 1.217000000000000E+10  -5.676341923821430E-2   -4.664007147819933E-3
 1.218000000000000E+10  -3.241212120646783E-2    3.345164345266247E-2
 1.219000000000000E+10  -2.177148852362777E-3    3.614561462438794E-2
 1.220000000000000E+10  -4.397067022977238E-3    3.465439316597208E-2
 1.221000000000000E+10   9.227309404804783E-3    4.819813010415960E-2
 1.222000000000000E+10   4.737032708586920E-2    4.112353892523882E-2
 1.223000000000000E+10   7.174892698014271E-2    3.622837931990132E-3
 1.224000000000000E+10   4.044689871926004E-2   -1.900953857282891E-2
 1.225000000000000E+10   3.557455618537803E-2   -1.511958403548327E-2
 1.226000000000000E+10   4.294923629342811E-2   -3.939707378245778E-2
 1.227000000000000E+10   7.502412359836526E-3   -6.120422909748557E-2
 1.228000000000000E+10  -3.335209700104935E-2   -5.246080385059047E-2
 1.229000000000000E+10  -3.858787379608716E-2   -1.567235125810220E-2
 1.230000000000000E+10  -2.270259260932621E-2   -6.716680784767707E-3
 1.231000000000000E+10  -4.351191232103473E-2    4.768396337857263E-3
 1.232000000000000E+10  -4.427670735749543E-2    4.332230309889881E-2
 1.233000000000000E+10   6.104211707843370E-3    6.042778536656436E-2
 1.234000000000000E+10   2.899709739974974E-2    3.689761548788389E-2
 1.235000000000000E+10   2.898279277109488E-2    1.690225770539818E-2
 1.236000000000000E+10   4.259296815423429E-2    1.437346804144249E-2
 1.237000000000000E+10   6.546203187435433E-2   -1.102703714369789E-2
 1.238000000000000E+10   4.077876311673167E-2   -5.486472812425470E-2
 1.239000000000000E+10  -6.723790978670194E-3   -6.487966545544610E-2
 1.240000000000000E+10  -2.796038111008231E-2   -3.621906127352872E-2
 1.241000000000000E+10  -2.784933195526787E-2   -3.199896088544367E-2
 1.242000000000000E+10  -6.075772839319793E-2   -2.487968128587296E-2
 1.243000000000000E+10  -6.961796467829773E-2    2.127933877525726E-2
 1.244000000000000E+10  -3.254980993917125E-2    6.492269175819715E-2
 1.245000000000000E+10   6.087537508080783E-3    5.291012617519081E-2
 1.246000000000000E+10   4.652964111328109E-3    3.870668988716731E-2
 1.247000000000000E+10   2.042715959953776E-2    4.736920844905704E-2
 1.248000000000000E+10   6.724774512936835E-2    2.475726221563165E-2
 1.249000000000000E+10   5.628428709859223E-2   -3.492041412794991E-2
 1.250000000000000E+10   2.096880184515587E-2   -4.160061317555171E-2
