#  HZ   S   RI   R     50.00 
! Rohde & Schwarz Vector Network Analyzer 
! Rohde-Schwarz,ZNA43-4Port,1332450044101932,2.92
! Created: UTC 6/9/2026, 6:45:26 AM
! freq[Hz]                re:S11                  im:S11
 8.000000000000000E9    -5.885991020122148E-2   -1.371073521099835E-1
 8.010000000000000E9    -1.219800386739701E-1   -1.341815677040697E-1
 8.020000000000000E9    -2.051753018517270E-1   -6.930551370074646E-2
 8.030000000000000E9    -2.412766538191728E-1    6.398091929271658E-2
 8.040000000000000E9    -1.799828297565738E-1    2.196794495148699E-1
 8.050000000000000E9    -1.589512783471998E-2    3.146899175967526E-1
 8.060000000000000E9     1.744167340201773E-1    2.733383580983533E-1
 8.070000000000000E9     2.919742542043940E-1    1.259787092258215E-1
 8.080000000000000E9     3.076909529258661E-1   -5.218940901472586E-2
 8.090000000000000E9     2.200730753821686E-1   -2.010324251522004E-1
 8.100000000000000E9     7.214745003906034E-2   -2.647114448624085E-1
 8.110000000000000E9    -8.014132033449019E-2   -2.303940927019656E-1
 8.120000000000000E9    -1.623256829054321E-1   -1.278265054507578E-1
 8.130000000000000E9    -1.715792946696291E-1   -2.620391224446604E-2
 8.140000000000000E9    -1.412536768393234E-1    4.138431921173515E-2
 8.150000000000000E9    -1.022654459034874E-1    6.833266005011122E-2
 8.160000000000000E9    -8.825941303605978E-2    1.007465719924013E-1
 8.170000000000000E9    -7.410598742653192E-2    1.648441538790515E-1
 8.180000000000000E9     2.169137113020346E-2    2.390586320343361E-1
 8.190000000000000E9     1.748775369008648E-1    2.273413777287900E-1
 8.200000000000000E9     3.054331314935501E-1    1.009953002771199E-1
 8.210000000000000E9     3.290515980336112E-1   -1.104843913480493E-1
 8.220000000000000E9     2.046923866799670E-1   -2.870284515294970E-1
 8.230000000000000E9    -8.474826293818608E-3   -3.385101400619309E-1
 8.240000000000000E9    -1.929757907039605E-1   -2.425558215083667E-1
 8.250000000000000E9    -2.847418139053938E-1   -7.278488253850884E-2
 8.260000000000000E9    -2.578822070028842E-1    1.074594795492528E-1
 8.270000000000000E9    -1.313000500434911E-1    2.273602904504561E-1
 8.280000000000000E9     2.692022084721763E-2    2.308170010338478E-1
 8.290000000000000E9     1.328348000473077E-1    1.523808764021801E-1
 8.300000000000000E9     1.524539462901497E-1    5.508068945547392E-2
 8.310000000000000E9     1.203392115378041E-1    3.926695640681788E-3
 8.320000000000000E9     9.942628664266763E-2   -7.859176547023035E-3
 8.330000000000000E9     1.167732277608080E-1   -3.220698569062539E-2
 8.340000000000000E9     1.144308725867436E-1   -8.718161379028221E-2
 8.350000000000000E9     6.289252422360579E-2   -1.555213748324187E-1
 8.360000000000000E9    -3.058442132679073E-2   -1.731168512311216E-1
 8.370000000000000E9    -1.421463652781796E-1   -1.297443308872163E-1
 8.380000000000000E9    -2.098723161201987E-1    6.795062599492818E-4
 8.390000000000000E9    -1.731552249780989E-1    1.370750398409172E-1
 8.400000000000000E9    -5.592272897353966E-2    2.331886347799847E-1
 8.410000000000000E9     1.122253943796146E-1    2.229590444582480E-1
 8.420000000000000E9     2.243505453976551E-1    1.080591784576942E-1
 8.430000000000000E9     2.356777559963505E-1   -4.772212553526006E-2
 8.440000000000000E9     1.349746524072524E-1   -1.524063125330974E-1
 8.450000000000000E9     9.089114361657914E-3   -1.554085706850909E-1
 8.460000000000000E9    -7.140687674271121E-2   -8.668542710851383E-2
 8.470000000000000E9    -6.029049470361133E-2   -6.544679078879543E-3
 8.480000000000000E9    -9.493267117427654E-3    1.996469527498431E-2
 8.490000000000000E9     2.319132451792980E-2   -4.189406845882442E-3
 8.500000000000000E9     8.819407982281782E-3   -4.608930159164227E-2
 8.510000000000000E9    -5.570319107458475E-2   -4.272152677539909E-2
 8.520000000000000E9    -9.437722482102665E-2    2.420935617469144E-2
 8.530000000000000E9    -6.586747441920478E-2    1.106257148233136E-1
 8.540000000000000E9     3.441325441338606E-2    1.499413593056004E-1
 8.550000000000000E9     1.427285220449200E-1    1.117382765664075E-1
 8.560000000000000E9     1.956662926217383E-1   -3.538303281942228E-3
 8.570000000000000E9     1.408987959072751E-1   -1.262879949026041E-1
 8.580000000000000E9     1.635084717711489E-2   -1.668243608690496E-1
 8.590000000000000E9    -1.005060534610103E-1   -1.109921883802646E-1
 8.600000000000000E9    -1.287783503717993E-1    4.240696938520119E-4
 8.610000000000000E9    -7.393464979581756E-2    9.288664253549465E-2
 8.620000000000000E9     2.994758432001859E-2    1.188656772975344E-1
 8.630000000000000E9     9.901830897640619E-2    6.023464633294681E-2
 8.640000000000000E9     1.103616209836996E-1   -1.420912831501008E-2
 8.650000000000000E9     4.852689633211652E-2   -7.337785875113850E-2
 8.660000000000000E9    -1.303131444232479E-2   -5.923943812774392E-2
 8.670000000000000E9    -4.585083214066543E-2   -8.863601981403875E-3
 8.680000000000000E9    -1.513985696424302E-2    4.875056872690069E-2
 8.690000000000000E9     5.089207541889171E-2    5.212491723102149E-2
 8.700000000000000E9     9.594232666797831E-2   -1.205135056338547E-3
 8.710000000000000E9     6.144976016525624E-2   -8.267849154168705E-2
 8.720000000000000E9    -2.588779572860062E-2   -9.507643423262688E-2
 8.730000000000000E9    -8.951019495666915E-2   -3.069119756455402E-2
 8.740000000000000E9    -7.850692490926944E-2    5.993024402890044E-2
 8.750000000000000E9     2.834422395936272E-3    1.124931588078888E-1
 8.760000000000000E9     9.515921010849453E-2    8.740003934772220E-2
 8.770000000000000E9     1.351548639293964E-1   -3.430606260144461E-3
 8.780000000000000E9     8.526885330267721E-2   -9.587440581335981E-2
 8.790000000000000E9    -5.781109644039881E-3   -1.263699811771685E-1
 8.800000000000000E9    -1.047689558093305E-1   -7.718935463628257E-2
 8.810000000000000E9    -1.251056920077870E-1    3.397249236424676E-2
 8.820000000000000E9    -5.543699385310558E-2    1.222715216335456E-1
 8.830000000000000E9     5.490624967300906E-2    1.358188750738063E-1
 8.840000000000000E9     1.279707907284282E-1    6.399676630061597E-2
 8.850000000000000E9     1.251726739660945E-1   -3.762425202281716E-2
 8.860000000000000E9     4.900936118295449E-2   -9.971750653671932E-2
 8.870000000000000E9    -3.783552465742859E-2   -7.340311089357730E-2
 8.880000000000000E9    -6.171894526623748E-2    3.178155857433254E-3
 8.890000000000000E9    -1.685282236530070E-2    6.850989330664944E-2
 8.900000000000000E9     6.241877064132764E-2    6.508371640086970E-2
 8.910000000000000E9     1.036941085559556E-1    9.134856127718578E-4
 8.920000000000000E9     7.895615233426509E-2   -8.442529513059227E-2
 8.930000000000000E9    -8.305632642232833E-3   -1.166333549535659E-1
 8.940000000000000E9    -8.780247189081167E-2   -8.000795925569718E-2
 8.950000000000000E9    -1.257664928189110E-1    1.710340325265471E-2
 8.960000000000000E9    -7.191139447487153E-2    1.097866382329618E-1
 8.970000000000000E9     1.549338741347651E-2    1.345320067208337E-1
 8.980000000000000E9     9.338395666353171E-2    8.865521995708421E-2
 8.990000000000000E9     1.046445703014108E-1    1.170589435208137E-2
 9.000000000000000E9     7.852678646885056E-2   -3.831947348527505E-2
 9.010000000000000E9     4.553832589923251E-2   -5.147818202787004E-2
 9.020000000000000E9     1.229517036929355E-2   -4.104621801871439E-2
 9.030000000000000E9     2.934204295530842E-3   -2.012485080935218E-2
 9.040000000000000E9     2.266264910095776E-2   -1.068331966976125E-2
 9.050000000000000E9     2.585668953948215E-2   -4.352142692244131E-2
 9.060000000000000E9    -1.276894014762809E-2   -8.093787496143913E-2
 9.070000000000000E9    -8.203172129582709E-2   -7.091972605563147E-2
 9.080000000000000E9    -1.460100473485121E-1    1.100757169225929E-2
 9.090000000000000E9    -1.273127328029423E-1    1.308378349140820E-1
 9.100000000000000E9    -1.030235778399256E-2    2.242611731600353E-1
 9.110000000000000E9     1.468552720563975E-1    1.946946369041063E-1
 9.120000000000000E9     2.472948383573884E-1    6.689859977642953E-2
 9.130000000000000E9     2.410128792703601E-1   -9.658380100833786E-2
 9.140000000000000E9     1.327353166797059E-1   -2.194417773174965E-1
 9.150000000000000E9    -1.886800921598162E-2   -2.449694234171498E-1
 9.160000000000000E9    -1.625460219172206E-1   -1.688427127825677E-1
 9.170000000000000E9    -2.162443554321942E-1   -3.328738972277620E-2
 9.180000000000000E9    -1.823965764738262E-1    9.044909504275948E-2
 9.190000000000000E9    -9.752971524409473E-2    1.636646253502879E-1
 9.200000000000000E9     8.832622854501055E-3    1.627770430528156E-1
 9.210000000000000E9     7.298830142043904E-2    1.206199191509529E-1
 9.220000000000000E9     8.644683633493305E-2    6.941219320815267E-2
 9.230000000000000E9     9.370039937195207E-2    6.282749044463215E-2
 9.240000000000000E9     1.291386747560697E-1    4.035615363026118E-2
 9.250000000000000E9     1.559167651484444E-1   -2.362628870538317E-2
 9.260000000000000E9     1.466375324909360E-1   -1.224095752765317E-1
 9.270000000000000E9     5.770462310743475E-2   -1.970800966437721E-1
 9.280000000000000E9    -6.874854432026138E-2   -2.071744120256305E-1
 9.290000000000000E9    -1.885249683607011E-1   -1.319502222119232E-1
 9.300000000000000E9    -2.402138922031190E-1    1.373151216537114E-2
 9.310000000000000E9    -1.919128077363563E-1    1.555609135000775E-1
 9.320000000000000E9    -6.715256806250527E-2    2.406063669184838E-1
 9.330000000000000E9     8.419168946856423E-2    2.342124997111898E-1
 9.340000000000000E9     1.967437900786333E-1    1.414804633853566E-1
 9.350000000000000E9     2.251654979871191E-1    1.679137480404423E-3
 9.360000000000000E9     1.638594223808210E-1   -1.016273205665493E-1
 9.370000000000000E9     6.411377742181260E-2   -1.394443939313656E-1
 9.380000000000000E9    -1.357571749103206E-2   -1.232338381573830E-1
 9.390000000000000E9    -4.360590022540244E-2   -7.754466382876729E-2
 9.400000000000000E9    -3.264389690928664E-2   -5.797868797141740E-2
 9.410000000000000E9    -4.936986995175689E-2   -7.816358043030198E-2
 9.420000000000000E9    -1.122855766752149E-1   -6.647010388112895E-2
 9.430000000000000E9    -1.654600931451312E-1    9.219832371795238E-3
 9.440000000000000E9    -1.598789849632098E-1    1.174127383328374E-1
 9.450000000000000E9    -7.611030974498686E-2    2.086659952586586E-1
 9.460000000000000E9     5.506553653169981E-2    2.407809110623750E-1
 9.470000000000000E9     2.011905226738221E-1    1.802150714138275E-1
 9.480000000000000E9     2.782200942305010E-1    3.286825393628678E-2
 9.490000000000000E9     2.437590658858907E-1   -1.323026633415786E-1
 9.500000000000000E9     1.144525604224519E-1   -2.425240626460874E-1
 9.510000000000000E9    -4.882027018600666E-2   -2.416042695576618E-1
 9.520000000000000E9    -1.570578502152128E-1   -1.621759254552951E-1
 9.530000000000000E9    -1.935219370844642E-1   -4.450492318759291E-2
 9.540000000000000E9    -1.620490860927729E-1    4.125164942194161E-2
 9.550000000000000E9    -1.203455204046081E-1    1.013025306604109E-1
 9.560000000000000E9    -6.593719748573945E-2    1.308824036665223E-1
 9.570000000000000E9    -1.324963294339491E-2    1.448636917235393E-1
 9.580000000000000E9     3.965549189897673E-2    1.394539914994745E-1
 9.590000000000000E9     8.927723096820583E-2    1.152160539100249E-1
 9.600000000000000E9     1.403541747328711E-1    7.978661627977882E-2
 9.610000000000000E9     1.812380964083490E-1    1.171761369499034E-2
 9.620000000000000E9     1.872614083044453E-1   -9.038463579094858E-2
 9.630000000000000E9     1.095312056073442E-1   -2.023772784921487E-1
 9.640000000000000E9    -3.159517964262403E-2   -2.375051588966123E-1
 9.650000000000000E9    -1.761464387714836E-1   -1.785636061893890E-1
 9.660000000000000E9    -2.465364281384891E-1   -3.925871091059394E-2
 9.670000000000000E9    -2.191406054761653E-1    1.080051965634964E-1
 9.680000000000000E9    -1.131402762101762E-1    2.141106992354733E-1
 9.690000000000000E9     2.507105135902682E-2    2.216818198571289E-1
 9.700000000000000E9     1.265472016767685E-1    1.540444679022912E-1
 9.710000000000000E9     1.522863486037017E-1    4.933917212657148E-2
 9.720000000000000E9     1.153525920596324E-1   -1.697910028993059E-2
 9.730000000000000E9     8.397203304929844E-2   -3.194959763625314E-2
 9.740000000000000E9     7.706888494693184E-2   -3.263962875272277E-2
 9.750000000000000E9     9.076185930234475E-2   -5.984382232005667E-2
 9.760000000000000E9     6.589530160054302E-2   -1.179513951379284E-1
 9.770000000000000E9    -3.681479085534521E-3   -1.668016190168992E-1
 9.780000000000000E9    -1.144031081178632E-1   -1.545939166219405E-1
 9.790000000000000E9    -1.954705614732279E-1   -7.433658397151865E-2
 9.800000000000000E9    -2.241962598320835E-1    4.736637037269382E-2
 9.810000000000000E9    -1.651412907180798E-1    1.828854357236335E-1
 9.820000000000000E9    -4.025284948908896E-2    2.532123719130962E-1
 9.830000000000000E9     1.072508245828457E-1    2.392030997732187E-1
 9.840000000000000E9     2.182294252582702E-1    1.403229546869540E-1
 9.850000000000000E9     2.567306738360153E-1    6.560116937260133E-4
 9.860000000000000E9     2.058260156333608E-1   -1.382329364254559E-1
 9.870000000000000E9     9.031234110921277E-2   -2.085227411481536E-1
 9.880000000000000E9    -3.199215391808938E-2   -2.009635037831889E-1
 9.890000000000000E9    -1.067530645219322E-1   -1.338024498589077E-1
 9.900000000000000E9    -1.323259798437024E-1   -6.936254974459262E-2
 9.910000000000000E9    -1.447368680282765E-1   -2.123748093684166E-2
 9.920000000000000E9    -1.487307316538915E-1    2.983432852922967E-2
 9.930000000000000E9    -1.426677398452716E-1    9.736792971594749E-2
 9.940000000000000E9    -8.903592457138278E-2    1.781507949472326E-1
 9.950000000000000E9     1.459098548084448E-2    2.285230383073604E-1
 9.960000000000000E9     1.495918469648132E-1    2.023573563153371E-1
 9.970000000000000E9     2.412476470262005E-1    9.159159342786699E-2
 9.980000000000000E9     2.673760153438584E-1   -5.433454772164910E-2
 9.990000000000000E9     1.990713201899717E-1   -2.037445352476436E-1
 1.000000000000000E+10   5.198327256054459E-2   -2.852298729636732E-1
 1.001000000000000E+10  -1.210250572129047E-1   -2.660533392064019E-1
 1.002000000000000E+10  -2.439782086061611E-1   -1.390018294886638E-1
 1.003000000000000E+10  -2.701459070016387E-1    2.436994887224137E-2
 1.004000000000000E+10  -1.956223875002784E-1    1.635158976844222E-1
 1.005000000000000E+10  -5.905199229275652E-2    2.165756017361500E-1
 1.006000000000000E+10   5.181280908229965E-2    1.886177179376056E-1
 1.007000000000000E+10   1.152567800256784E-1    1.150403610399585E-1
 1.008000000000000E+10   1.290328824321938E-1    5.952988521742867E-2
 1.009000000000000E+10   1.330652402220770E-1    6.313826932566890E-3
 1.010000000000000E+10   1.204079774146891E-1   -3.995193612312421E-2
 1.011000000000000E+10   9.980089892479392E-2   -8.421557164409320E-2
 1.012000000000000E+10   6.529575283947647E-2   -1.269425661254077E-1
 1.013000000000000E+10   7.054331060637908E-3   -1.642632540221171E-1
 1.014000000000000E+10  -8.954784134845191E-2   -1.587951832792923E-1
 1.015000000000000E+10  -1.745574841269040E-1   -8.857730089726110E-2
 1.016000000000000E+10  -2.063815317940907E-1    2.179052451898839E-2
 1.017000000000000E+10  -1.643908573408079E-1    1.410962624491273E-1
 1.018000000000000E+10  -5.607668664249857E-2    2.073860409217658E-1
 1.019000000000000E+10   7.517952808135903E-2    2.015191850843573E-1
 1.020000000000000E+10   1.712594111395173E-1    1.132747536129493E-1
 1.021000000000000E+10   1.878415375042919E-1    2.056335643614286E-3
 1.022000000000000E+10   1.465398277024381E-1   -9.148233259074602E-2
 1.023000000000000E+10   5.449030493305167E-2   -1.427633848362663E-1
 1.024000000000000E+10  -3.033696308104716E-2   -1.170217299109010E-1
 1.025000000000000E+10  -6.339967686010918E-2   -5.569611830195387E-2
 1.026000000000000E+10  -3.142616148184007E-2   -1.913025443886041E-2
 1.027000000000000E+10  -2.179236270254069E-2   -3.630579653857158E-2
 1.028000000000000E+10  -4.829609485793666E-2   -4.898742653456490E-2
 1.029000000000000E+10  -1.052676585638644E-1   -2.578960759049781E-2
 1.030000000000000E+10  -1.257847710361193E-1    5.621618919134405E-2
 1.031000000000000E+10  -7.563002839440178E-2    1.355931108763976E-1
 1.032000000000000E+10   2.759385687761860E-2    1.695876162796459E-1
 1.033000000000000E+10   1.278841082651720E-1    1.251809896517895E-1
 1.034000000000000E+10   1.861496272808314E-1    3.539704375521888E-2
 1.035000000000000E+10   1.807881315457541E-1   -8.307175145437458E-2
 1.036000000000000E+10   9.603041287642239E-2   -1.668106503124737E-1
 1.037000000000000E+10  -1.755354699310013E-2   -1.944711236465825E-1
 1.038000000000000E+10  -1.179147117525712E-1   -1.346049632217468E-1
 1.039000000000000E+10  -1.570656454986420E-1   -4.354243755418417E-2
 1.040000000000000E+10  -1.312989535450383E-1    4.649427966804246E-2
 1.041000000000000E+10  -6.938161952330826E-2    8.917035921562387E-2
 1.042000000000000E+10  -2.038522829740639E-2    8.674811334164785E-2
 1.043000000000000E+10   1.023747298286306E-2    6.415649298070297E-2
 1.044000000000000E+10   6.944854693321591E-3    5.349210411848827E-2
 1.045000000000000E+10   1.954986567295734E-2    6.563788036360851E-2
 1.046000000000000E+10   6.029018874255252E-2    7.523144913604442E-2
 1.047000000000000E+10   1.170032836278667E-1    4.705624293310932E-2
 1.048000000000000E+10   1.367019952495196E-1   -3.345508191856524E-2
 1.049000000000000E+10   1.047051691347967E-1   -1.098510327404449E-1
 1.050000000000000E+10   2.207536336934381E-2   -1.664371242900829E-1
 1.051000000000000E+10  -8.611237820931042E-2   -1.597658902237968E-1
 1.052000000000000E+10  -1.724708986287112E-1   -7.668112162254671E-2
 1.053000000000000E+10  -1.824021673577827E-1    5.569210059170978E-2
 1.054000000000000E+10  -9.668276482020806E-2    1.516427153912982E-1
 1.055000000000000E+10   1.317248721920209E-2    1.759403507262274E-1
 1.056000000000000E+10   1.032174559491082E-1    1.081689744808391E-1
 1.057000000000000E+10   1.176857854478037E-1    2.655025381301697E-2
 1.058000000000000E+10   8.786005060741039E-2   -2.782094884347541E-2
 1.059000000000000E+10   4.765394570902717E-2   -3.602746036391475E-2
 1.060000000000000E+10   4.267306429513793E-2   -3.346434327431754E-2
 1.061000000000000E+10   3.465053993190658E-2   -3.700498932737964E-2
 1.062000000000000E+10   2.724292191061411E-2   -4.942776876189157E-2
 1.063000000000000E+10   1.030747162223214E-2   -6.493500492037826E-2
 1.064000000000000E+10  -2.336759989828882E-2   -8.295788262537139E-2
 1.065000000000000E+10  -8.595674220601900E-2   -7.308827361548997E-2
 1.066000000000000E+10  -1.302691976004772E-1   -1.340921685163262E-4
 1.067000000000000E+10  -1.201894149514572E-1    9.221942412257482E-2
 1.068000000000000E+10  -4.609453628113853E-2    1.672388923728637E-1
 1.069000000000000E+10   6.587992289588913E-2    1.861930829153425E-1
 1.070000000000000E+10   1.739243690263800E-1    1.158941639901116E-1
 1.071000000000000E+10   2.148902020177477E-1   -1.141907579320984E-2
 1.072000000000000E+10   1.619144390694319E-1   -1.249341430666322E-1
 1.073000000000000E+10   6.333531477395057E-2   -1.672935849908233E-1
 1.074000000000000E+10  -3.298664496237268E-2   -1.560460941502347E-1
 1.075000000000000E+10  -9.839892338488891E-2   -8.815882505334888E-2
 1.076000000000000E+10  -1.026910062801716E-1   -1.476682986800939E-2
 1.077000000000000E+10  -7.019639201103152E-2    3.165582644349399E-2
 1.078000000000000E+10  -3.825305164490891E-2    3.879142727932985E-2
 1.079000000000000E+10  -1.658543258678436E-2    4.652869284185985E-2
 1.080000000000000E+10  -5.853857267424624E-3    4.974607490575422E-2
 1.081000000000000E+10   8.053467781777483E-3    6.564635406201565E-2
 1.082000000000000E+10   4.811992790005594E-2    8.065447273513779E-2
 1.083000000000000E+10   1.108771897890030E-1    5.797417678921381E-2
 1.084000000000000E+10   1.499978908498966E-1   -2.925730651519915E-2
 1.085000000000000E+10   1.127632328540053E-1   -1.177890461596423E-1
 1.086000000000000E+10   2.769251608602772E-2   -1.639717691568844E-1
 1.087000000000000E+10  -7.552370576997260E-2   -1.436690579435770E-1
 1.088000000000000E+10  -1.494647980567085E-1   -7.082104226067121E-2
 1.089000000000000E+10  -1.582999309964405E-1    4.717078933337643E-2
 1.090000000000000E+10  -8.692401635211552E-2    1.284110715113719E-1
 1.091000000000000E+10   1.256778182897280E-2    1.528240617337751E-1
 1.092000000000000E+10   1.054124512820656E-1    1.084466774571963E-1
 1.093000000000000E+10   1.416446125734482E-1    3.023841949111487E-2
 1.094000000000000E+10   1.228094309224886E-1   -5.426804783889261E-2
 1.095000000000000E+10   4.612378496850052E-2   -9.433459182282064E-2
 1.096000000000000E+10  -1.046107436565111E-2   -7.324132014729730E-2
 1.097000000000000E+10  -3.118906008540594E-2   -2.879229707216331E-2
 1.098000000000000E+10  -6.541466522142224E-3   -2.658416149881221E-3
 1.099000000000000E+10   1.740574808379438E-2   -4.045979833125760E-4
 1.100000000000000E+10   3.043122127846761E-2   -3.640649966170135E-2
 1.101000000000000E+10  -1.549099843718226E-2   -5.630448112645033E-2
 1.102000000000000E+10  -5.851505917150375E-2   -3.030267057556339E-2
 1.103000000000000E+10  -6.872115937726961E-2    2.391518196422029E-2
 1.104000000000000E+10  -3.512036887123664E-2    6.914512186364195E-2
 1.105000000000000E+10   2.678772892963664E-2    8.382985009534602E-2
 1.106000000000000E+10   8.044138659798646E-2    5.365040233627488E-2
 1.107000000000000E+10   9.738933798841944E-2   -1.003006933700233E-2
 1.108000000000000E+10   5.585709219857007E-2   -6.325756897991619E-2
 1.109000000000000E+10  -2.149937628532888E-3   -6.324200197040429E-2
 1.110000000000000E+10  -3.261862755803020E-2   -3.372158641594318E-2
 1.111000000000000E+10  -3.180346925202458E-2    1.109354625466482E-2
 1.112000000000000E+10  -9.845203795636907E-5    4.083416415252557E-2
 1.113000000000000E+10   4.390049156833174E-2    3.543424003621772E-2
 1.114000000000000E+10   6.874733805889705E-2   -5.410641153121867E-3
 1.115000000000000E+10   4.019758970812651E-2   -4.608393642075315E-2
 1.116000000000000E+10   4.400509564331269E-3   -7.130204673098491E-2
 1.117000000000000E+10  -5.377174492427329E-2   -5.126799122960926E-2
 1.118000000000000E+10  -8.104643228283447E-2    1.018358623133424E-2
 1.119000000000000E+10  -4.593828560219493E-2    8.785441928262563E-2
 1.120000000000000E+10   4.848784343500978E-2    1.018169195937189E-1
 1.121000000000000E+10   1.027994466226556E-1    4.061956651496615E-2
 1.122000000000000E+10   9.761264038397384E-2   -4.204751998994102E-2
 1.123000000000000E+10   3.556115109566800E-2   -8.424386496460508E-2
 1.124000000000000E+10  -2.808760045039180E-2   -6.960081033379761E-2
 1.125000000000000E+10  -5.787875564017834E-2   -1.322365213605710E-2
 1.126000000000000E+10  -3.477683595867861E-2    4.069056756598004E-2
 1.127000000000000E+10   5.523280590317400E-3    5.988676106120915E-2
 1.128000000000000E+10   4.987600493597843E-2    4.119187016375045E-2
 1.129000000000000E+10   6.117854903407798E-2   -3.042339461997123E-3
 1.130000000000000E+10   4.005126488968304E-2   -4.539752889664050E-2
 1.131000000000000E+10  -9.988534119007877E-3   -4.165315241674619E-2
 1.132000000000000E+10  -3.195232181932268E-2    1.143241171563562E-3
 1.133000000000000E+10  -2.017037001056853E-2    4.693749069504193E-2
 1.134000000000000E+10   2.193738461490275E-2    6.554611418628249E-2
 1.135000000000000E+10   6.771619843363991E-2    4.645431647023918E-2
 1.136000000000000E+10   9.307306856864962E-2   -5.769640772751009E-3
 1.137000000000000E+10   6.379686000953588E-2   -6.607090648146689E-2
 1.138000000000000E+10   1.398038264324148E-3   -7.844393291453687E-2
 1.139000000000000E+10  -5.127787794892832E-2   -3.804774589295463E-2
 1.140000000000000E+10  -5.226910776773137E-2    3.287081274977301E-2
 1.141000000000000E+10   2.910320422570036E-4    6.715661188230991E-2
 1.142000000000000E+10   5.429203945067344E-2    5.224136092329854E-2
 1.143000000000000E+10   7.822961427893636E-2    4.707757843300301E-3
 1.144000000000000E+10   6.776371765708587E-2   -4.347509059799496E-2
 1.145000000000000E+10   2.456006603205043E-2   -7.311709550434164E-2
 1.146000000000000E+10  -4.168012579600297E-2   -5.677321833572895E-2
 1.147000000000000E+10  -7.352908568360857E-2    1.154815738699321E-2
 1.148000000000000E+10  -3.269928985807267E-2    7.563466505965147E-2
 1.149000000000000E+10   4.293930270153697E-2    8.346023734581427E-2
 1.150000000000000E+10   9.738264646706024E-2    3.025403119996672E-2
 1.151000000000000E+10   9.509198742185389E-2   -4.131780181555125E-2
 1.152000000000000E+10   3.792699559298796E-2   -8.031232786498586E-2
 1.153000000000000E+10  -2.904178128559337E-2   -6.010305774177086E-2
 1.154000000000000E+10  -5.785543862834920E-2   -7.094350285001651E-3
 1.155000000000000E+10  -4.110531855794421E-2    4.385020271129979E-2
 1.156000000000000E+10   1.206905634176268E-2    6.331719830403804E-2
 1.157000000000000E+10   5.784388011526199E-2    3.993569080212545E-2
 1.158000000000000E+10   7.425629224185287E-2   -1.445511166853007E-2
 1.159000000000000E+10   3.155482538882281E-2   -5.524720372546128E-2
 1.160000000000000E+10  -2.610721472448118E-2   -4.405258406666886E-2
 1.161000000000000E+10  -5.334249443768131E-2    9.718335203514675E-3
 1.162000000000000E+10  -2.728601222642438E-2    6.186305999671766E-2
 1.163000000000000E+10   3.389380754645265E-2    7.968063087973688E-2
 1.164000000000000E+10   9.270845400557821E-2    4.839835210367020E-2
 1.165000000000000E+10   1.103985934910622E-1   -1.968810062855161E-2
 1.166000000000000E+10   7.176437708817618E-2   -7.208214344136009E-2
 1.167000000000000E+10   8.017004856604837E-3   -9.065040733696642E-2
 1.168000000000000E+10  -4.528598008736605E-2   -7.214284179437636E-2
 1.169000000000000E+10  -8.287230421198205E-2   -2.667200276018261E-2
 1.170000000000000E+10  -7.454713738013956E-2    4.557685606325417E-2
 1.171000000000000E+10  -7.300673271266600E-3    9.197495720941662E-2
 1.172000000000000E+10   5.999490011687936E-2    6.378785743174525E-2
 1.173000000000000E+10   6.526430156460941E-2    2.884978286137513E-3
 1.174000000000000E+10   1.839519866868852E-2   -2.077566249338280E-2
 1.175000000000000E+10  -1.783044703254234E-2   -1.542606938662225E-3
 1.176000000000000E+10  -5.226386741026132E-3    4.601766701677961E-2
 1.177000000000000E+10   4.861482330914615E-2    6.212291264461194E-2
 1.178000000000000E+10   9.866371117960730E-2    2.012600903473442E-2
 1.179000000000000E+10   9.848186166630808E-2   -5.053077388834046E-2
 1.180000000000000E+10   4.566414671914403E-2   -1.002682304945577E-1
 1.181000000000000E+10  -3.152170315196043E-2   -1.100097807605387E-1
 1.182000000000000E+10  -1.053268245297277E-1   -6.733514012125733E-2
 1.183000000000000E+10  -1.381561640615636E-1    3.078428789435537E-2
 1.184000000000000E+10  -8.719649679791350E-2    1.309507955147172E-1
 1.185000000000000E+10   2.157884718603415E-2    1.718914805685531E-1
 1.186000000000000E+10   1.178070950174941E-1    1.259006169832781E-1
 1.187000000000000E+10   1.572669018040754E-1    4.014086982153802E-2
 1.188000000000000E+10   1.466298568652859E-1   -4.385938791044073E-2
 1.189000000000000E+10   9.423339117197066E-2   -1.058868222576523E-1
 1.190000000000000E+10   2.309305823065045E-2   -1.234523221301064E-1
 1.191000000000000E+10  -4.008236433762839E-2   -8.517977740727023E-2
 1.192000000000000E+10  -6.342012080667310E-2   -3.119516254624647E-2
 1.193000000000000E+10  -4.996531037416498E-2    9.898699746218390E-3
 1.194000000000000E+10  -2.001657523700217E-2    2.574005710048416E-2
 1.195000000000000E+10  -8.555828713441935E-3    5.789487208010860E-3
 1.196000000000000E+10  -2.912120995219129E-2    4.287846452690753E-3
 1.197000000000000E+10  -4.431430497759757E-2    4.266200515038344E-2
 1.198000000000000E+10  -9.807491560660133E-3    9.759963051529721E-2
 1.199000000000000E+10   6.470296957467982E-2    1.084312513585487E-1
 1.200000000000000E+10   1.377252811391891E-1    5.830178354507722E-2
 1.201000000000000E+10   1.612671889437702E-1   -4.315719413822078E-2
 1.202000000000000E+10   1.037566965978510E-1   -1.433308410524869E-1
 1.203000000000000E+10  -1.165797971388831E-2   -1.745108327560935E-1
 1.204000000000000E+10  -1.145033642246117E-1   -1.154895165085781E-1
 1.205000000000000E+10  -1.505927790507328E-1   -8.307863345122891E-3
 1.206000000000000E+10  -1.177723066063522E-1    8.494472772882795E-2
 1.207000000000000E+10  -3.669668961965221E-2    1.302927422779883E-1
 1.208000000000000E+10   4.842261346426883E-2    1.100065008432233E-1
 1.209000000000000E+10   9.264178385772202E-2    4.669571001878233E-2
 1.210000000000000E+10   8.643538453538327E-2   -1.603362618430734E-2
 1.211000000000000E+10   4.439552461086562E-2   -4.331558208531350E-2
 1.212000000000000E+10  -1.776196859424965E-3   -3.561351156586454E-2
 1.213000000000000E+10  -2.272868598442563E-2    6.170114050167367E-4
 1.214000000000000E+10   3.624899256016476E-3    3.169976973015765E-2
 1.215000000000000E+10   4.724582866800571E-2    1.581126343119876E-2
 1.216000000000000E+10   5.386956005048463E-2   -3.614067991629304E-2
 1.217000000000000E+10   7.082169445956609E-3   -7.587171647167928E-2
 1.218000000000000E+10  -5.617950539165871E-2   -5.640098370600483E-2
 1.219000000000000E+10  -9.225886771057644E-2    6.041775290710994E-3
 1.220000000000000E+10  -7.214402634490764E-2    8.343424149177169E-2
 1.221000000000000E+10   7.415985317273222E-3    1.191599421864415E-1
 1.222000000000000E+10   8.776066654355177E-2    9.104729960149584E-2
 1.223000000000000E+10   1.253366252326003E-1    1.607465772670397E-2
 1.224000000000000E+10   1.049066706974868E-1   -5.504414678005427E-2
 1.225000000000000E+10   4.916327973420060E-2   -9.703009647895240E-2
 1.226000000000000E+10  -2.272776789187307E-2   -9.709418001354868E-2
 1.227000000000000E+10  -7.599029640544136E-2   -5.046465315382317E-2
 1.228000000000000E+10  -7.300944273846011E-2    2.095419305487770E-2
 1.229000000000000E+10  -1.540490482783266E-2    5.722546933384253E-2
 1.230000000000000E+10   4.122719918906313E-2    3.258136060834111E-2
 1.231000000000000E+10   4.253619819664318E-2   -2.538499773731841E-2
 1.232000000000000E+10  -1.042895668503814E-2   -4.973683104944219E-2
 1.233000000000000E+10  -6.285226963439931E-2   -1.957588368147583E-2
 1.234000000000000E+10  -6.977252538138808E-2    4.642116589915990E-2
 1.235000000000000E+10  -1.301964571212027E-2    9.454287340793339E-2
 1.236000000000000E+10   6.873881935366348E-2    8.862462913904401E-2
 1.237000000000000E+10   1.215449010209131E-1    2.038142760547732E-2
 1.238000000000000E+10   1.104274840907272E-1   -6.989812749363276E-2
 1.239000000000000E+10   3.710799436626835E-2   -1.318607272947559E-1
 1.240000000000000E+10  -6.530037568603830E-2   -1.239810905327229E-1
 1.241000000000000E+10  -1.284586879628223E-1   -4.625192767352351E-2
 1.242000000000000E+10  -1.132727767447203E-1    4.478759514416192E-2
 1.243000000000000E+10  -5.360697064560335E-2    9.184819589629020E-2
 1.244000000000000E+10   1.161798360907805E-2    9.406411616176551E-2
 1.245000000000000E+10   5.497336698556011E-2    5.682442566036968E-2
 1.246000000000000E+10   6.167664000740019E-2    3.500119465235392E-3
 1.247000000000000E+10   2.837697951080409E-2   -3.227846789187563E-2
 1.248000000000000E+10  -4.037386059971163E-3   -3.034439453630796E-2
 1.249000000000000E+10  -2.422987144925698E-2   -1.051217891165518E-2
 1.250000000000000E+10  -9.868699665727638E-3    3.171163114291611E-2
