#  HZ   S   RI   R     50.00 
! Rohde & Schwarz Vector Network Analyzer 
! Rohde-Schwarz,ZNA43-4Port,1332450044101932,2.92
! Created: UTC 6/9/2026, 6:46:29 AM
! freq[Hz]                re:S11                  im:S11
 8.000000000000000E9    -1.919447778519776E-1   -2.432947756678454E-1
 8.010000000000000E9    -2.819689606424269E-1   -8.372267316949121E-2
 8.020000000000000E9    -2.498275690365479E-1    9.721953124028727E-2
 8.030000000000000E9    -1.280230316142423E-1    1.972470286418406E-1
 8.040000000000000E9    -4.349532374550548E-3    1.875525774858035E-1
 8.050000000000000E9     5.344508560236284E-2    1.540664012819843E-1
 8.060000000000000E9     6.860279257753217E-2    1.391069251528609E-1
 8.070000000000000E9     1.379184820752936E-1    1.476302180057021E-1
 8.080000000000000E9     2.493795835818237E-1    6.458615151995409E-2
 8.090000000000000E9     2.746272353647887E-1   -9.222257728926923E-2
 8.100000000000000E9     1.747523864052056E-1   -2.457497429680718E-1
 8.110000000000000E9    -5.577765186778056E-3   -2.969227742522744E-1
 8.120000000000000E9    -1.706722492241168E-1   -2.197912357840969E-1
 8.130000000000000E9    -2.385122639805675E-1   -6.386683566660512E-2
 8.140000000000000E9    -2.036672834692320E-1    6.292880276851225E-2
 8.150000000000000E9    -1.229166050646014E-1    1.122264524053031E-1
 8.160000000000000E9    -7.689305961590205E-2    1.483030299328386E-1
 8.170000000000000E9    -3.573208847164063E-2    1.904889650522779E-1
 8.180000000000000E9     6.031461917240126E-2    2.363757721096053E-1
 8.190000000000000E9     2.132999829175665E-1    1.947944471256974E-1
 8.200000000000000E9     3.105942236138908E-1    4.643855822994759E-2
 8.210000000000000E9     2.823888171658763E-1   -1.569316556303838E-1
 8.220000000000000E9     1.324369416885862E-1   -2.864283513548959E-1
 8.230000000000000E9    -5.862217762082295E-2   -2.730361221524407E-1
 8.240000000000000E9    -1.751863065240320E-1   -1.465626169298928E-1
 8.250000000000000E9    -1.827076431144786E-1   -2.472601042363803E-2
 8.260000000000000E9    -1.474487994678968E-1    4.135605452384342E-2
 8.270000000000000E9    -1.172406844769300E-1    8.610780977078175E-2
 8.280000000000000E9    -9.580664176884125E-2    1.370405119155101E-1
 8.290000000000000E9    -2.787169525194130E-2    2.020866414576735E-1
 8.300000000000000E9     1.155144717814984E-1    2.257151706900122E-1
 8.310000000000000E9     2.432364910809786E-1    1.334035584428385E-1
 8.320000000000000E9     2.754929073416627E-1   -4.526016811795811E-2
 8.330000000000000E9     1.822068240763430E-1   -1.960285639531533E-1
 8.340000000000000E9     1.666137344855771E-2   -2.338018910012498E-1
 8.350000000000000E9    -1.079011228079774E-1   -1.457681299458213E-1
 8.360000000000000E9    -1.233677865159165E-1   -3.810766126813364E-2
 8.370000000000000E9    -7.509318794794864E-2    2.091015173692728E-2
 8.380000000000000E9    -5.746957605089068E-2    2.124510606537464E-2
 8.390000000000000E9    -8.511517306350876E-2    3.558255274771061E-2
 8.400000000000000E9    -8.024788060937950E-2    1.089939957602881E-1
 8.410000000000000E9     1.174512048014191E-2    1.762974128476912E-1
 8.420000000000000E9     1.323468468112438E-1    1.618031094440582E-1
 8.430000000000000E9     2.267147798208576E-1    4.235886324856456E-2
 8.440000000000000E9     1.921835182561973E-1   -1.043133549017721E-1
 8.450000000000000E9     6.904478910673920E-2   -1.636463512180688E-1
 8.460000000000000E9    -4.648653029413646E-2   -1.203290154848851E-1
 8.470000000000000E9    -6.087518347196563E-2   -4.505660380900195E-2
 8.480000000000000E9    -2.322681040879449E-2   -6.044935287341502E-4
 8.490000000000000E9     1.883307054163975E-3   -2.672150542059554E-2
 8.500000000000000E9    -4.463431927679298E-2   -5.243580174596236E-2
 8.510000000000000E9    -1.068525455755206E-1    3.254328095880236E-3
 8.520000000000000E9    -7.990228815909241E-2    1.099974445409579E-1
 8.530000000000000E9     1.868093105981536E-2    1.596296658019963E-1
 8.540000000000000E9     1.417581842243018E-1    1.035975537897092E-1
 8.550000000000000E9     1.690376191082520E-1   -2.576879253319423E-2
 8.560000000000000E9     8.255905662343471E-2   -1.016194884940810E-1
 8.570000000000000E9    -1.472282831438879E-2   -8.070502842522875E-2
 8.580000000000000E9    -3.550614000508447E-2   -1.105742878336781E-2
 8.590000000000000E9     4.622220915178666E-3    2.414232467214019E-2
 8.600000000000000E9     4.403329489808217E-2   -4.153393047549475E-3
 8.610000000000000E9     2.694797418075122E-2   -6.703255600020593E-2
 8.620000000000000E9    -5.681959350889804E-2   -5.788536921930401E-2
 8.630000000000000E9    -8.490516860811857E-2    4.399120060865601E-2
 8.640000000000000E9    -1.436641522395994E-2    1.247057865607274E-1
 8.650000000000000E9     1.009528401276467E-1    1.042503276553122E-1
 8.660000000000000E9     1.536086719229666E-1   -8.374326758326228E-3
 8.670000000000000E9     8.431554249271599E-2   -1.091398942634077E-1
 8.680000000000000E9    -2.729758639770768E-2   -1.087938746074894E-1
 8.690000000000000E9    -7.295923481753647E-2   -2.391366787678951E-2
 8.700000000000000E9    -3.324380919841502E-2    5.492413862181348E-2
 8.710000000000000E9     4.010945816582804E-2    4.993059392049443E-2
 8.720000000000000E9     5.858011021683370E-2   -2.009741142436141E-2
 8.730000000000000E9     6.273892045813345E-3   -5.595888748392176E-2
 8.740000000000000E9    -5.016840115439878E-2   -1.362576007537896E-2
 8.750000000000000E9    -3.218072577278821E-2    5.760125068597065E-2
 8.760000000000000E9     5.154722923959174E-2    8.614208616540107E-2
 8.770000000000000E9     1.183342996030004E-1    1.231626341533048E-2
 8.780000000000000E9     7.804449069243953E-2   -8.973713825344704E-2
 8.790000000000000E9    -3.504945275086963E-2   -1.112578073713177E-1
 8.800000000000000E9    -1.090422322847375E-1   -2.584167266929097E-2
 8.810000000000000E9    -7.480350535304978E-2    8.165128702170125E-2
 8.820000000000000E9     2.714292716082016E-2    1.044219431069520E-1
 8.830000000000000E9     9.242912261929506E-2    4.038244176633483E-2
 8.840000000000000E9     6.797471702980894E-2   -3.188567428237058E-2
 8.850000000000000E9    -3.971018607818359E-3   -4.492442663218724E-2
 8.860000000000000E9    -3.392793497555834E-2    1.546363455509875E-2
 8.870000000000000E9     1.657488150746449E-2    6.853275493667890E-2
 8.880000000000000E9     9.045254626254080E-2    4.009803405950330E-2
 8.890000000000000E9     1.058315509037023E-1   -3.942744367457333E-2
 8.900000000000000E9     4.182486971974195E-2   -1.061470238561013E-1
 8.910000000000000E9    -5.967447483353366E-2   -7.856341898635405E-2
 8.920000000000000E9    -8.074392013317015E-2    1.302705810756811E-2
 8.930000000000000E9    -6.672042788370814E-3    6.155732631963185E-2
 8.940000000000000E9     5.526773685461777E-2    2.397567403104138E-2
 8.950000000000000E9     3.859086707957597E-2   -4.788850747164187E-2
 8.960000000000000E9    -4.275947192920672E-2   -5.683446243908985E-2
 8.970000000000000E9    -9.794624301917483E-2    2.138248613220714E-2
 8.980000000000000E9    -5.137536461613613E-2    1.244909812419274E-1
 8.990000000000000E9     5.857363141637036E-2    1.369902636195664E-1
 9.000000000000000E9     1.496934549342236E-1    5.957918843680615E-2
 9.010000000000000E9     1.471198206862640E-1   -5.084944239708510E-2
 9.020000000000000E9     6.548894922446007E-2   -1.098585051885119E-1
 9.030000000000000E9    -1.914836245872574E-2   -9.012597176472868E-2
 9.040000000000000E9    -3.663337147932709E-2   -3.222785809468166E-2
 9.050000000000000E9    -1.095231900349791E-2   -1.959119292068906E-2
 9.060000000000000E9    -1.598644990121662E-2   -5.097302079198746E-2
 9.070000000000000E9    -7.768397558834349E-2   -6.027802612195574E-2
 9.080000000000000E9    -1.453060053608431E-1    2.578374250062069E-2
 9.090000000000000E9    -1.093061042957169E-1    1.604050056177242E-1
 9.100000000000000E9     3.608561246340143E-2    2.216214842757570E-1
 9.110000000000000E9     1.827863427162931E-1    1.606358431022342E-1
 9.120000000000000E9     2.453826008476979E-1    4.508399834011260E-3
 9.130000000000000E9     1.762635648868780E-1   -1.431970819578517E-1
 9.140000000000000E9     4.031603979693831E-2   -1.922576215359263E-1
 9.150000000000000E9    -5.402898291016495E-2   -1.336088951778987E-1
 9.160000000000000E9    -7.580945406885212E-2   -7.073940642456981E-2
 9.170000000000000E9    -7.749964654727733E-2   -5.498573713207972E-2
 9.180000000000000E9    -1.184273015068056E-1   -4.299963211764345E-2
 9.190000000000000E9    -1.714635753804458E-1    2.378692169633899E-2
 9.200000000000000E9    -1.578279329691431E-1    1.524219086175638E-1
 9.210000000000000E9    -3.165661773851621E-2    2.551532974957925E-1
 9.220000000000000E9     1.449420813050308E-1    2.398769921582444E-1
 9.230000000000000E9     2.687100643427770E-1    1.020957640609586E-1
 9.240000000000000E9     2.517291834132970E-1   -8.486355074451560E-2
 9.250000000000000E9     1.260286018563771E-1   -1.910411861310733E-1
 9.260000000000000E9    -1.081786900129446E-2   -1.793509971800331E-1
 9.270000000000000E9    -6.604466995868694E-2   -1.060205149206901E-1
 9.280000000000000E9    -6.496791881570531E-2   -6.238574541306409E-2
 9.290000000000000E9    -6.970050849922915E-2   -6.659191194138982E-2
 9.300000000000000E9    -1.407543287579509E-1   -4.020163702059060E-2
 9.310000000000000E9    -1.780904557897342E-1    5.902679770208041E-2
 9.320000000000000E9    -1.257025982105081E-1    1.812916244347507E-1
 9.330000000000000E9     1.344796368082628E-2    2.481906645218531E-1
 9.340000000000000E9     1.747786588693664E-1    1.889966200784851E-1
 9.350000000000000E9     2.435363913605961E-1    3.804989165665176E-2
 9.360000000000000E9     1.877042445451690E-1   -9.752459689982609E-2
 9.370000000000000E9     7.097238616515916E-2   -1.457354561397853E-1
 9.380000000000000E9    -6.648693883179049E-3   -1.111017260131360E-1
 9.390000000000000E9    -8.238314397995683E-3   -7.971459003503134E-2
 9.400000000000000E9    -5.861721475318378E-3   -1.044504642965529E-1
 9.410000000000000E9    -8.440114594340585E-2   -1.338494941257065E-1
 9.420000000000000E9    -1.816522078961643E-1   -7.370289530217070E-2
 9.430000000000000E9    -2.233477986914068E-1    6.638117515255952E-2
 9.440000000000000E9    -1.457075027288862E-1    2.115645143298703E-1
 9.450000000000000E9     1.654571477958592E-2    2.597649995262058E-1
 9.460000000000000E9     1.686930690262798E-1    1.857955612658734E-1
 9.470000000000000E9     2.098937485097304E-1    4.533024801562768E-2
 9.480000000000000E9     1.669340554335341E-1   -5.727438350272808E-2
 9.490000000000000E9     9.754121772288697E-2   -9.299197737662894E-2
 9.500000000000000E9     6.748579525120824E-2   -8.540137920618925E-2
 9.510000000000000E9     6.418121734378579E-2   -1.174755746453521E-1
 9.520000000000000E9     2.287115789702307E-3   -1.919052002730430E-1
 9.530000000000000E9    -1.277042348825365E-1   -1.910472980224949E-1
 9.540000000000000E9    -2.506289039471919E-1   -8.509856825857429E-2
 9.550000000000000E9    -2.625362151283051E-1    1.022861393394663E-1
 9.560000000000000E9    -1.446971600390646E-1    2.401082569697503E-1
 9.570000000000000E9     3.146646188987306E-2    2.626916700960932E-1
 9.580000000000000E9     1.436633233982277E-1    1.716520556095399E-1
 9.590000000000000E9     1.798543527296406E-1    4.934415780963073E-2
 9.600000000000000E9     1.366799816744168E-1   -2.237451394303956E-2
 9.610000000000000E9     1.035846465970599E-1   -3.875292842685687E-2
 9.620000000000000E9     1.070263667566502E-1   -5.661816514511381E-2
 9.630000000000000E9     1.049069032767130E-1   -1.304156360998721E-1
 9.640000000000000E9     7.879501531301600E-3   -2.066885280970742E-1
 9.650000000000000E9    -1.438967558912188E-1   -1.869522597207938E-1
 9.660000000000000E9    -2.393062194682812E-1   -5.390644503528005E-2
 9.670000000000000E9    -2.146517682261483E-1    1.022312830671546E-1
 9.680000000000000E9    -1.050346772457452E-1    2.063925619316230E-1
 9.690000000000000E9     3.443786857144409E-2    1.985332375837525E-1
 9.700000000000000E9     1.078120736387658E-1    1.133190012585700E-1
 9.710000000000000E9     8.433806650073994E-2    4.385232535157233E-2
 9.720000000000000E9     7.733873645700942E-2    5.054974184079881E-2
 9.730000000000000E9     1.145708655649670E-1    5.116747087033954E-2
 9.740000000000000E9     1.791428483272086E-1   -1.692258775979700E-2
 9.750000000000000E9     1.636419215254103E-1   -1.406221032589131E-1
 9.760000000000000E9     4.293141073359675E-2   -2.266825349781060E-1
 9.770000000000000E9    -1.130556568679023E-1   -2.112666749862944E-1
 9.780000000000000E9    -2.134225876684526E-1   -9.674737206540845E-2
 9.790000000000000E9    -2.180755176746652E-1    5.597502206928982E-2
 9.800000000000000E9    -1.147189746235225E-1    1.435665881502351E-1
 9.810000000000000E9    -2.176236463291519E-2    1.409469285324466E-1
 9.820000000000000E9     3.058907544438585E-4    1.072967286794726E-1
 9.830000000000000E9     1.189406967846422E-2    1.313262111958616E-1
 9.840000000000000E9     7.916099646096957E-2    1.571719789089586E-1
 9.850000000000000E9     1.931140366076962E-1    1.150090963163758E-1
 9.860000000000000E9     2.573897028958532E-1   -1.899908998893361E-2
 9.870000000000000E9     2.162483779707758E-1   -1.864232754279140E-1
 9.880000000000000E9     5.516210864515928E-2   -2.866762973930037E-1
 9.890000000000000E9    -1.295175029965198E-1   -2.544927254347544E-1
 9.900000000000000E9    -2.400724232111623E-1   -1.055591648629652E-1
 9.910000000000000E9    -2.206404772845574E-1    3.718721615791931E-2
 9.920000000000000E9    -1.403656250060336E-1    1.171647012864328E-1
 9.930000000000000E9    -7.550877432315811E-2    1.316523284714851E-1
 9.940000000000000E9    -4.264370468103284E-2    1.438671366667692E-1
 9.950000000000000E9     1.280455218466714E-2    1.841968586050573E-1
 9.960000000000000E9     1.207056096805956E-1    1.954501702383610E-1
 9.970000000000000E9     2.382840521645738E-1    1.064329692026328E-1
 9.980000000000000E9     2.844495289815864E-1   -5.973767714303711E-2
 9.990000000000000E9     1.948683084539513E-1   -2.342814293050648E-1
 1.000000000000000E+10   5.581223012391114E-3   -2.962228451264877E-1
 1.001000000000000E+10  -1.600087327778345E-1   -2.187281945281362E-1
 1.002000000000000E+10  -2.238627839864825E-1   -7.314375002302435E-2
 1.003000000000000E+10  -1.939311253409861E-1    5.076127225578633E-2
 1.004000000000000E+10  -1.160378732240279E-1    1.017173282057196E-1
 1.005000000000000E+10  -7.447568455273151E-2    1.036797043047196E-1
 1.006000000000000E+10  -5.481816062270459E-2    1.354622330624266E-1
 1.007000000000000E+10   4.676112374557694E-3    1.865275691444740E-1
 1.008000000000000E+10   1.264283262118692E-1    1.854356768217956E-1
 1.009000000000000E+10   2.376813305524768E-1    9.116573760403132E-2
 1.010000000000000E+10   2.563245037619603E-1   -8.114263422052700E-2
 1.011000000000000E+10   1.430246303492745E-1   -2.226814751870976E-1
 1.012000000000000E+10  -2.987403946196630E-2   -2.460562657028490E-1
 1.013000000000000E+10  -1.436027981626914E-1   -1.460770368814770E-1
 1.014000000000000E+10  -1.603802790485706E-1   -2.215654486293236E-2
 1.015000000000000E+10  -9.892408756312228E-2    3.515231729918519E-2
 1.016000000000000E+10  -6.643505462587786E-2    2.859015891192302E-2
 1.017000000000000E+10  -8.537441965103418E-2    3.565110102907852E-2
 1.018000000000000E+10  -9.929253280885991E-2    9.709889802077459E-2
 1.019000000000000E+10  -3.315185332562533E-2    1.664001803180720E-1
 1.020000000000000E+10   9.826615953553272E-2    1.880909093331556E-1
 1.021000000000000E+10   2.018722527742161E-1    8.420100878430506E-2
 1.022000000000000E+10   2.090485867928218E-1   -6.264780647138846E-2
 1.023000000000000E+10   1.052476287026050E-1   -1.677672660854347E-1
 1.024000000000000E+10  -2.182941069713061E-2   -1.602040035436106E-1
 1.025000000000000E+10  -8.800437249415329E-2   -7.899203317529518E-2
 1.026000000000000E+10  -5.531249872147877E-2   -1.694900479433692E-2
 1.027000000000000E+10  -1.954309985152867E-2   -2.599892228843363E-2
 1.028000000000000E+10  -5.239080479520814E-2   -6.252976202534037E-2
 1.029000000000000E+10  -1.306180324606994E-1   -2.802772805550819E-2
 1.030000000000000E+10  -1.498035425331559E-1    8.596870938379045E-2
 1.031000000000000E+10  -5.782636796355266E-2    1.903579310781685E-1
 1.032000000000000E+10   9.226536042852564E-2    1.850940862028593E-1
 1.033000000000000E+10   1.919881046184865E-1    7.439577230400309E-2
 1.034000000000000E+10   1.830458547954343E-1   -6.464203456141081E-2
 1.035000000000000E+10   7.693106070971592E-2   -1.344779734476605E-1
 1.036000000000000E+10  -1.523775075583737E-2   -1.067445879087056E-1
 1.037000000000000E+10  -2.825852760423700E-2   -5.356395878835147E-2
 1.038000000000000E+10   1.617600245701189E-4   -5.116800699950048E-2
 1.039000000000000E+10  -1.095704913036613E-2   -9.107334339437516E-2
 1.040000000000000E+10  -9.115840036851576E-2   -1.175555934651316E-1
 1.041000000000000E+10  -1.878614109265519E-1   -2.929534619405079E-2
 1.042000000000000E+10  -1.855957864947414E-1    1.232815318010655E-1
 1.043000000000000E+10  -4.772790241608895E-2    2.171209180756369E-1
 1.044000000000000E+10   9.971265709789932E-2    1.870961861046593E-1
 1.045000000000000E+10   1.803169351873331E-1    5.988522260969075E-2
 1.046000000000000E+10   1.373413967756098E-1   -5.588869795987825E-2
 1.047000000000000E+10   5.128105595457318E-2   -8.648636258651252E-2
 1.048000000000000E+10   7.134421989214380E-3   -4.213932945791672E-2
 1.049000000000000E+10   2.894575421633822E-2   -2.285321432772642E-2
 1.050000000000000E+10   5.254589156720032E-2   -6.172387879999021E-2
 1.051000000000000E+10   3.200159452358114E-3   -1.357901536514824E-1
 1.052000000000000E+10  -1.110659362424746E-1   -1.231746622982870E-1
 1.053000000000000E+10  -1.886958012576799E-1   -1.373117959664258E-2
 1.054000000000000E+10  -1.460918917332019E-1    1.306206824298001E-1
 1.055000000000000E+10  -1.842732110504106E-2    1.953909812183650E-1
 1.056000000000000E+10   1.086559751146195E-1    1.391711811256537E-1
 1.057000000000000E+10   1.371490473884139E-1    2.112880097016016E-2
 1.058000000000000E+10   7.770610217336732E-2   -4.591314404322293E-2
 1.059000000000000E+10   1.764722573002152E-2   -2.413337167579571E-2
 1.060000000000000E+10   4.009331145279815E-2    1.852476012943169E-2
 1.061000000000000E+10   9.844961303532797E-2   -8.963920751700121E-3
 1.062000000000000E+10   9.325121703952106E-2   -9.773488458118687E-2
 1.063000000000000E+10   1.105541918932946E-3   -1.629180299570350E-1
 1.064000000000000E+10  -1.218890480687190E-1   -1.360993506262014E-1
 1.065000000000000E+10  -1.893305321381788E-1   -6.709979736455804E-3
 1.066000000000000E+10  -1.373730370893683E-1    1.313731190923235E-1
 1.067000000000000E+10  -9.410145910584166E-4    1.750133086464195E-1
 1.068000000000000E+10   9.637293396788704E-2    1.110202149839217E-1
 1.069000000000000E+10   9.535079563337275E-2    3.197049681995178E-2
 1.070000000000000E+10   5.219666657831118E-2   -2.571506794344519E-5
 1.071000000000000E+10   5.432629736414773E-2    3.450714585737739E-2
 1.072000000000000E+10   1.146623674761247E-1    3.321042959130221E-2
 1.073000000000000E+10   1.626451690856411E-1   -5.064271135198142E-2
 1.074000000000000E+10   1.146739445166442E-1   -1.681012203311809E-1
 1.075000000000000E+10  -2.126226877235000E-2   -2.141389534205407E-1
 1.076000000000000E+10  -1.672337555669728E-1   -1.415496870080674E-1
 1.077000000000000E+10  -2.063149505653440E-1    1.399571688198066E-2
 1.078000000000000E+10  -1.127433729901073E-1    1.394139415916589E-1
 1.079000000000000E+10   1.675065971663713E-2    1.476278098250703E-1
 1.080000000000000E+10   8.688623320998216E-2    8.537769454218154E-2
 1.081000000000000E+10   7.981456412959219E-2    4.376066556551636E-3
 1.082000000000000E+10   3.661000383779999E-2    1.261195429559325E-3
 1.083000000000000E+10   4.303488431552095E-2    3.380947705194491E-2
 1.084000000000000E+10   1.117193097047054E-1    1.611729214032540E-2
 1.085000000000000E+10   1.363500842197354E-1   -8.553793543239761E-2
 1.086000000000000E+10   5.255568913181611E-2   -1.752271521980699E-1
 1.087000000000000E+10  -8.739861954218024E-2   -1.692966271347950E-1
 1.088000000000000E+10  -1.797821271201590E-1   -5.891314311495641E-2
 1.089000000000000E+10  -1.600219128479316E-1    8.550775377561812E-2
 1.090000000000000E+10  -4.410078329179458E-2    1.629355463376110E-1
 1.091000000000000E+10   8.046467897395687E-2    1.234851755398272E-1
 1.092000000000000E+10   1.179515600425743E-1    1.393226430852327E-2
 1.093000000000000E+10   5.134995209610785E-2   -3.421888959295196E-2
 1.094000000000000E+10   4.628558287736581E-3   -9.472569392566919E-4
 1.095000000000000E+10   3.722565263395775E-2    4.453997261000259E-2
 1.096000000000000E+10   1.030344610568023E-1    8.058840559012107E-3
 1.097000000000000E+10   1.087648688944250E-1   -7.574232028384847E-2
 1.098000000000000E+10   2.656306415021497E-2   -1.494287816375973E-1
 1.099000000000000E+10  -8.317636932774160E-2   -1.237617899005055E-1
 1.100000000000000E+10  -1.372607175385410E-1   -9.698998030639262E-3
 1.101000000000000E+10  -8.140034558449424E-2    1.000789287071530E-1
 1.102000000000000E+10   3.463913567119099E-2    1.072329825348860E-1
 1.103000000000000E+10   9.885023821836680E-2    1.708117990030029E-2
 1.104000000000000E+10   4.244410595868708E-2   -6.199427621872661E-2
 1.105000000000000E+10  -3.637527892539667E-2   -5.153887175196011E-2
 1.106000000000000E+10  -5.975156881720908E-2    3.141649758257003E-2
 1.107000000000000E+10   1.013593324545539E-2    9.362674347616909E-2
 1.108000000000000E+10   9.210826069270621E-2    5.639567319058877E-2
 1.109000000000000E+10   1.071345107808181E-1   -4.192847842357558E-2
 1.110000000000000E+10   3.297476350416457E-2   -1.009671500207081E-1
 1.111000000000000E+10  -5.256755963058764E-2   -6.726299986779505E-2
 1.112000000000000E+10  -6.260732594227165E-2    2.467956778538939E-2
 1.113000000000000E+10   1.120505989110619E-2    7.474411279109111E-2
 1.114000000000000E+10   8.932227025792239E-2    3.233627792502408E-2
 1.115000000000000E+10   6.922107651779097E-2   -6.289302928906740E-2
 1.116000000000000E+10  -1.252078786815558E-2   -9.929831026708491E-2
 1.117000000000000E+10  -9.246729685776343E-2   -3.988726475653710E-2
 1.118000000000000E+10  -8.195818206829669E-2    7.212688526903287E-2
 1.119000000000000E+10   1.841239912163846E-2    1.146389459521027E-1
 1.120000000000000E+10   1.141492347764408E-1    4.983530842995131E-2
 1.121000000000000E+10   9.412128169778097E-2   -5.105848165513337E-2
 1.122000000000000E+10   2.277464691379293E-3   -8.460217117666302E-2
 1.123000000000000E+10  -5.829071888250201E-2   -2.974615958429407E-2
 1.124000000000000E+10  -3.659778372919999E-2    4.785886494519220E-2
 1.125000000000000E+10   4.201124781371195E-2    7.216154081652910E-2
 1.126000000000000E+10   9.152062103783251E-2   -8.739786296932065E-4
 1.127000000000000E+10   5.449001377686710E-2   -7.761887178799765E-2
 1.128000000000000E+10  -4.476938049240665E-2   -7.811163265219742E-2
 1.129000000000000E+10  -9.527495099958029E-2    1.234356492184787E-2
 1.130000000000000E+10  -4.380381905681491E-2    9.336309620617926E-2
 1.131000000000000E+10   7.297772827152099E-2    1.006109362348463E-1
 1.132000000000000E+10   1.244959504746805E-1    1.520227490031266E-2
 1.133000000000000E+10   7.515959907860102E-2   -7.299179149574254E-2
 1.134000000000000E+10  -2.174650243124164E-2   -7.709402925766620E-2
 1.135000000000000E+10  -6.836237626029951E-2    6.394329698510060E-3
 1.136000000000000E+10  -1.225122722445916E-2    8.212047924682540E-2
 1.137000000000000E+10   7.754729197756581E-2    5.638265413923539E-2
 1.138000000000000E+10   1.025218885640666E-1   -2.375763301132087E-2
 1.139000000000000E+10   4.177524768174954E-2   -8.664275775082343E-2
 1.140000000000000E+10  -4.647783249704825E-2   -6.126125956572732E-2
 1.141000000000000E+10  -7.027417709379793E-2    1.737523475147935E-2
 1.142000000000000E+10  -7.747759043744900E-3    8.688585453458025E-2
 1.143000000000000E+10   8.406410873311276E-2    6.151970421542551E-2
 1.144000000000000E+10   1.051753517204296E-1   -4.309397915260336E-2
 1.145000000000000E+10   2.553031387703249E-2   -9.847203345828183E-2
 1.146000000000000E+10  -6.691131334048672E-2   -4.982048762190371E-2
 1.147000000000000E+10  -7.398102135332907E-2    4.569648105669790E-2
 1.148000000000000E+10   8.089118276067085E-3    1.006058154931433E-1
 1.149000000000000E+10   9.873126931594786E-2    5.413095846937828E-2
 1.150000000000000E+10   9.792266501525385E-2   -4.877529422985210E-2
 1.151000000000000E+10   1.864461908404728E-2   -9.239101068061772E-2
 1.152000000000000E+10  -5.355710824395456E-2   -3.908495772632772E-2
 1.153000000000000E+10  -4.903058459539470E-2    5.384763066712808E-2
 1.154000000000000E+10   2.863045665462693E-2    7.578937854220168E-2
 1.155000000000000E+10   8.859252178682900E-2    1.776370512579644E-2
 1.156000000000000E+10   7.168710018719013E-2   -6.245998199837362E-2
 1.157000000000000E+10  -1.906653611471084E-2   -8.812397466203804E-2
 1.158000000000000E+10  -9.023261987307890E-2   -2.262942510361033E-2
 1.159000000000000E+10  -5.876635188860525E-2    8.458238991088099E-2
 1.160000000000000E+10   4.156123888122269E-2    1.137998309743222E-1
 1.161000000000000E+10   1.102957074479371E-1    3.202388954445421E-2
 1.162000000000000E+10   7.845185508007123E-2   -6.143714277212107E-2
 1.163000000000000E+10  -3.194192694093816E-3   -6.460379673597932E-2
 1.164000000000000E+10  -4.637534535011847E-2    4.023180131913747E-3
 1.165000000000000E+10   3.651626728170306E-3    5.908633314158339E-2
 1.166000000000000E+10   7.901090111922135E-2    5.151618321537770E-2
 1.167000000000000E+10   1.079712067432065E-1   -3.227517771331035E-2
 1.168000000000000E+10   4.125518213453148E-2   -1.154305485698727E-1
 1.169000000000000E+10  -6.654426979115691E-2   -1.103811075348855E-1
 1.170000000000000E+10  -1.209495303445263E-1   -6.350020541123325E-3
 1.171000000000000E+10  -7.217894202022615E-2    1.011445541129245E-1
 1.172000000000000E+10   3.763275634005935E-2    1.094308281252233E-1
 1.173000000000000E+10   8.555468959770962E-2    3.316507624190156E-2
 1.174000000000000E+10   4.257230351770535E-2   -2.360639425603149E-2
 1.175000000000000E+10  -2.212353760355532E-2   -9.948193925823520E-3
 1.176000000000000E+10  -9.316715831395881E-3    5.498011634455580E-2
 1.177000000000000E+10   6.898027476073286E-2    7.808448213974491E-2
 1.178000000000000E+10   1.345838138684432E-1    9.777083989391418E-3
 1.179000000000000E+10   1.125898300631385E-1   -1.039757273250375E-1
 1.180000000000000E+10  -1.635465769810146E-3   -1.562737072278338E-1
 1.181000000000000E+10  -1.193587902938936E-1   -9.175937082337234E-2
 1.182000000000000E+10  -1.457704948496163E-1    2.888639274813769E-2
 1.183000000000000E+10  -6.955833229823748E-2    1.221381173108412E-1
 1.184000000000000E+10   4.030666923626526E-2    1.264477409421558E-1
 1.185000000000000E+10   8.908417341838998E-2    5.560497114278225E-2
 1.186000000000000E+10   5.226565197751857E-2    8.701669397344799E-4
 1.187000000000000E+10   1.977782103034110E-2    2.313079356383524E-2
 1.188000000000000E+10   5.201039943348215E-2    6.146576297491461E-2
 1.189000000000000E+10   1.220150629529139E-1    3.289549152161177E-2
 1.190000000000000E+10   1.535864106805267E-1   -6.579480904342332E-2
 1.191000000000000E+10   8.669931011989254E-2   -1.596051772394449E-1
 1.192000000000000E+10  -5.235718457265937E-2   -1.751344532564696E-1
 1.193000000000000E+10  -1.618605874384435E-1   -8.284507705968250E-2
 1.194000000000000E+10  -1.562239903329510E-1    6.305385917385251E-2
 1.195000000000000E+10  -5.381616415450018E-2    1.407792217818132E-1
 1.196000000000000E+10   5.350377578363791E-2    1.106646537138325E-1
 1.197000000000000E+10   8.384869442909966E-2    2.827955678711450E-2
 1.198000000000000E+10   4.325783783971319E-2   -3.349097094771099E-3
 1.199000000000000E+10   1.745044754292139E-2    2.044444037116528E-2
 1.200000000000000E+10   4.791710222055273E-2    4.659207121606571E-2
 1.201000000000000E+10   1.122287394411062E-1    1.448393237834330E-2
 1.202000000000000E+10   1.243939352348253E-1   -7.832644372637441E-2
 1.203000000000000E+10   3.676799840885731E-2   -1.681757243902159E-1
 1.204000000000000E+10  -9.724103795437587E-2   -1.457604980904681E-1
 1.205000000000000E+10  -1.656881814662743E-1   -1.941143446868956E-2
 1.206000000000000E+10  -1.223329813157606E-1    1.034054122552799E-1
 1.207000000000000E+10  -7.178314371882212E-3    1.358014105591235E-1
 1.208000000000000E+10   7.945662650869038E-2    7.517738901645793E-2
 1.209000000000000E+10   6.827742799587252E-2   -1.244201137219274E-2
 1.210000000000000E+10   1.313239959302713E-3   -2.713728873775347E-2
 1.211000000000000E+10  -1.843772171980431E-2    3.370055092398135E-2
 1.212000000000000E+10   4.090578696427808E-2    7.691406100078953E-2
 1.213000000000000E+10   1.042931252088926E-1    2.787817387858230E-2
 1.214000000000000E+10   9.980395104632009E-2   -7.238373530413925E-2
 1.215000000000000E+10   1.582757497473400E-2   -1.315792472688354E-1
 1.216000000000000E+10  -9.239251463492898E-2   -9.062178028775895E-2
 1.217000000000000E+10  -1.275164543519092E-1    1.711389974313912E-2
 1.218000000000000E+10  -5.129181350103128E-2    1.082074601688647E-1
 1.219000000000000E+10   5.527458766676776E-2    1.051726697337386E-1
 1.220000000000000E+10   8.535160587204751E-2    1.372112553875910E-2
 1.221000000000000E+10   3.462079622434790E-2   -5.701272387400633E-2
 1.222000000000000E+10  -3.736471082196988E-2   -2.077645983409167E-2
 1.223000000000000E+10  -2.906019219654670E-2    6.184745438546661E-2
 1.224000000000000E+10   5.474395169403650E-2    8.186197701121989E-2
 1.225000000000000E+10   1.257145644342160E-1    1.146845773097297E-2
 1.226000000000000E+10   1.021333773690864E-1   -9.052913363978297E-2
 1.227000000000000E+10  -4.678887642979166E-3   -1.389956674320473E-1
 1.228000000000000E+10  -1.012668589564220E-1   -8.795614546907900E-2
 1.229000000000000E+10  -1.073696843731213E-1    2.239069593871322E-2
 1.230000000000000E+10  -3.180081662399425E-2    8.748545027503087E-2
 1.231000000000000E+10   4.483184956464853E-2    5.378326297640669E-2
 1.232000000000000E+10   4.587709261718170E-2   -2.497169084673569E-2
 1.233000000000000E+10  -2.406864690946012E-2   -4.406840660432966E-2
 1.234000000000000E+10  -7.652718085789253E-2    2.213368231797709E-2
 1.235000000000000E+10  -2.420322815368611E-2    9.666704867752629E-2
 1.236000000000000E+10   8.513019195165641E-2    9.040457968297776E-2
 1.237000000000000E+10   1.400623312422885E-1   -3.580885908943336E-3
 1.238000000000000E+10   8.990296865518528E-2   -1.121977567899093E-1
 1.239000000000000E+10  -2.367729373825786E-2   -1.422206705244956E-1
 1.240000000000000E+10  -1.175553737702105E-1   -6.237369519870684E-2
 1.241000000000000E+10  -1.030929592811690E-1    4.362181526655868E-2
 1.242000000000000E+10  -1.459569908353063E-2    7.325680285340198E-2
 1.243000000000000E+10   3.909392382174339E-2    2.435003442109728E-2
 1.244000000000000E+10   9.463240075340313E-3   -2.953832723450115E-2
 1.245000000000000E+10  -6.135993476832026E-2   -2.137904162532097E-2
 1.246000000000000E+10  -7.826023899820968E-2    5.723220498924080E-2
 1.247000000000000E+10  -1.804356246668712E-3    1.235656432436015E-1
 1.248000000000000E+10   1.031925093733270E-1    8.466088355150629E-2
 1.249000000000000E+10   1.420113644967040E-1   -2.808356211481054E-2
 1.250000000000000E+10   7.276288095356845E-2   -1.237975271349256E-1
