#  HZ   S   RI   R     50.00 
! Rohde & Schwarz Vector Network Analyzer 
! Rohde-Schwarz,ZNA43-4Port,1332450044101932,2.92
! Created: UTC 6/9/2026, 6:31:20 AM
! freq[Hz]                re:S11                  im:S11
 8.000000000000000E9     3.647024389221092E-1   -6.526218526676134E-1
 8.010000000000000E9    -6.842532979844447E-2   -7.430046946368450E-1
 8.020000000000000E9    -4.735768633405629E-1   -5.724288824639071E-1
 8.030000000000000E9    -7.122861941721198E-1   -1.998893218700737E-1
 8.040000000000000E9    -6.976231555532850E-1    2.450745612150377E-1
 8.050000000000000E9    -4.364678621324350E-1    6.019549179138219E-1
 8.060000000000000E9    -3.004737413135708E-2    7.466767586055535E-1
 8.070000000000000E9     3.849493517381616E-1    6.424620829720405E-1
 8.080000000000000E9     6.741313653099297E-1    3.319418087361409E-1
 8.090000000000000E9     7.502645188055410E-1   -8.416241297428192E-2
 8.100000000000000E9     5.884584521070994E-1   -4.752322518650952E-1
 8.110000000000000E9     2.340621673912828E-1   -7.159472871307204E-1
 8.120000000000000E9    -1.973304265955641E-1   -7.242628569539203E-1
 8.130000000000000E9    -5.621748605416486E-1   -4.939243188022465E-1
 8.140000000000000E9    -7.389776700465480E-1   -1.031521375678227E-1
 8.150000000000000E9    -6.729843448920860E-1    3.174625383799243E-1
 8.160000000000000E9    -3.852041263968917E-1    6.399176382919043E-1
 8.170000000000000E9     2.449647250740629E-2    7.539708465659157E-1
 8.180000000000000E9     4.269152096552709E-1    6.287318978894411E-1
 8.190000000000000E9     6.962500241079599E-1    3.049697414789564E-1
 8.200000000000000E9     7.473724804412868E-1   -1.155536672631142E-1
 8.210000000000000E9     5.687832795949341E-1   -5.001385048928638E-1
 8.220000000000000E9     2.080163215359608E-1   -7.234586315870971E-1
 8.230000000000000E9    -2.197540741231437E-1   -7.109586133862298E-1
 8.240000000000000E9    -5.749911757813398E-1   -4.610204042133424E-1
 8.250000000000000E9    -7.352447823670157E-1   -5.089220171165604E-2
 8.260000000000000E9    -6.414343185481549E-1    3.703711061360953E-1
 8.270000000000000E9    -3.241729355232534E-1    6.685658283853914E-1
 8.280000000000000E9     1.049265129983422E-1    7.367501308346112E-1
 8.290000000000000E9     4.962187166268823E-1    5.573348977924515E-1
 8.300000000000000E9     7.240774055556269E-1    1.952783748516982E-1
 8.310000000000000E9     7.093214848735023E-1   -2.336736333170321E-1
 8.320000000000000E9     4.563084924559117E-1   -5.884004011367836E-1
 8.330000000000000E9     3.915589572828122E-2   -7.408889904646854E-1
 8.340000000000000E9    -3.948360299043615E-1   -6.219595429982788E-1
 8.350000000000000E9    -6.771680481243708E-1   -2.703956822699377E-1
 8.360000000000000E9    -7.013682500719061E-1    1.900866298519381E-1
 8.370000000000000E9    -4.536017757358828E-1    5.733383712221432E-1
 8.380000000000000E9    -3.403940204176326E-2    7.372908546531561E-1
 8.390000000000000E9     3.992048970234617E-1    6.264371633977995E-1
 8.400000000000000E9     6.871811561474078E-1    2.837858845510171E-1
 8.410000000000000E9     7.297585422724809E-1   -1.642325721023490E-1
 8.420000000000000E9     4.998533987233158E-1   -5.530439181193822E-1
 8.430000000000000E9     8.029752226233196E-2   -7.311090691381110E-1
 8.440000000000000E9    -3.687872347122942E-1   -6.228648003676892E-1
 8.450000000000000E9    -6.685728509376657E-1   -2.627406783083467E-1
 8.460000000000000E9    -6.873149753837806E-1    1.982689189779513E-1
 8.470000000000000E9    -4.234915239029500E-1    5.778390191602250E-1
 8.480000000000000E9     1.489835687491124E-2    7.213264064837402E-1
 8.490000000000000E9     4.484363286030257E-1    5.748768864301422E-1
 8.500000000000000E9     7.077571604505026E-1    2.035947893146472E-1
 8.510000000000000E9     6.915319733564672E-1   -2.469557649402244E-1
 8.520000000000000E9     4.149734015430196E-1   -6.031638266426254E-1
 8.530000000000000E9    -2.215115905491095E-2   -7.295126447942115E-1
 8.540000000000000E9    -4.518563422296050E-1   -5.670550542918561E-1
 8.550000000000000E9    -6.947203398397721E-1   -1.772747827537396E-1
 8.560000000000000E9    -6.600252328169915E-1    2.847900685891646E-1
 8.570000000000000E9    -3.618920789691385E-1    6.283754154687201E-1
 8.580000000000000E9     7.238953570054786E-2    7.286019734463236E-1
 8.590000000000000E9     4.797545959529110E-1    5.596804778876614E-1
 8.600000000000000E9     7.148738326891743E-1    1.866974061868729E-1
 8.610000000000000E9     7.005162990777002E-1   -2.493647949439718E-1
 8.620000000000000E9     4.370754969696112E-1   -5.969846931974350E-1
 8.630000000000000E9     1.937135603686096E-2   -7.294946618488232E-1
 8.640000000000000E9    -4.015867062360457E-1   -5.978872111244238E-1
 8.650000000000000E9    -6.741601403508310E-1   -2.479100092523527E-1
 8.660000000000000E9    -6.893586053362757E-1    1.911991781271981E-1
 8.670000000000000E9    -4.485928413811585E-1    5.596009684437088E-1
 8.680000000000000E9    -3.941398555964062E-2    7.226755532661170E-1
 8.690000000000000E9     3.874392027610991E-1    6.216687599025018E-1
 8.700000000000000E9     6.775145583276483E-1    2.979981729759320E-1
 8.710000000000000E9     7.268722079477332E-1   -1.331009478091897E-1
 8.720000000000000E9     5.255556841902588E-1   -5.153522975093840E-1
 8.730000000000000E9     1.442649839939702E-1   -7.183928662326851E-1
 8.740000000000000E9    -2.875916881331176E-1   -6.698486089517793E-1
 8.750000000000000E9    -6.165905999726069E-1   -3.800086848921654E-1
 8.760000000000000E9    -7.244832338772247E-1    5.294321970072797E-2
 8.770000000000000E9    -5.619731615883090E-1    4.687816476507444E-1
 8.780000000000000E9    -1.913427387723429E-1    7.109403608674828E-1
 8.790000000000000E9     2.478696563791923E-1    6.956187753959711E-1
 8.800000000000000E9     6.005031867049945E-1    4.318214367158056E-1
 8.810000000000000E9     7.447113420623921E-1    1.794722693146612E-2
 8.820000000000000E9     6.244494134355141E-1   -4.062213759529725E-1
 8.830000000000000E9     2.759584317111439E-1   -6.845599667259969E-1
 8.840000000000000E9    -1.734960437985680E-1   -7.071042535496173E-1
 8.850000000000000E9    -5.536204129311524E-1   -4.633266558069228E-1
 8.860000000000000E9    -7.161791144215933E-1   -4.595694513439197E-2
 8.870000000000000E9    -6.032443672426214E-1    3.863270620384958E-1
 8.880000000000000E9    -2.611130256446245E-1    6.705977504594869E-1
 8.890000000000000E9     1.791155008647463E-1    7.036787397978307E-1
 8.900000000000000E9     5.535966357389603E-1    4.795613141504002E-1
 8.910000000000000E9     7.284973830942887E-1    8.051489736196191E-2
 8.920000000000000E9     6.448217084153973E-1   -3.462963850468103E-1
 8.930000000000000E9     3.327363542810524E-1   -6.490324267091624E-1
 8.940000000000000E9    -9.762801272157980E-2   -7.187025298488136E-1
 8.950000000000000E9    -4.909317708131882E-1   -5.264584615342789E-1
 8.960000000000000E9    -7.044245099684860E-1   -1.392070663563949E-1
 8.970000000000000E9    -6.574335546820944E-1    2.965618059514001E-1
 8.980000000000000E9    -3.712864855567770E-1    6.216510151899287E-1
 8.990000000000000E9     4.474653379123298E-2    7.232488806371847E-1
 9.000000000000000E9     4.431519014301735E-1    5.737509490139368E-1
 9.010000000000000E9     6.907978548223963E-1    2.363055610209286E-1
 9.020000000000000E9     7.088742156335295E-1   -1.800401582453988E-1
 9.030000000000000E9     4.898120988014723E-1   -5.389459931847503E-1
 9.040000000000000E9     1.022510948337846E-1   -7.156438675434703E-1
 9.050000000000000E9    -3.204059652283049E-1   -6.441291355141048E-1
 9.060000000000000E9    -6.259470001417489E-1   -3.484965389432705E-1
 9.070000000000000E9    -7.110132634980711E-1    6.679640352611542E-2
 9.080000000000000E9    -5.516181856658156E-1    4.570661246890773E-1
 9.090000000000000E9    -2.048832154279455E-1    6.939457992569374E-1
 9.100000000000000E9     2.136756453285145E-1    7.004040091819570E-1
 9.110000000000000E9     5.630885264785810E-1    4.734757218092276E-1
 9.120000000000000E9     7.323224693991901E-1    9.187398448015560E-2
 9.130000000000000E9     6.657248247284190E-1   -3.205295885268850E-1
 9.140000000000000E9     3.848865291433045E-1   -6.299008853654093E-1
 9.150000000000000E9    -2.031846250236781E-2   -7.358098530043333E-1
 9.160000000000000E9    -4.228119215637341E-1   -5.976461377422464E-1
 9.170000000000000E9    -6.851883344205604E-1   -2.638470451631575E-1
 9.180000000000000E9    -7.217991380321485E-1    1.572907000057443E-1
 9.190000000000000E9    -5.212948792068868E-1    5.275573072852758E-1
 9.200000000000000E9    -1.508166779940802E-1    7.271371638206803E-1
 9.210000000000000E9     2.698400163129989E-1    6.988675335623727E-1
 9.220000000000000E9     6.057791085448909E-1    4.472538875670606E-1
 9.230000000000000E9     7.510115966816876E-1    5.349123834705004E-2
 9.240000000000000E9     6.580916407645940E-1   -3.582555765674825E-1
 9.250000000000000E9     3.528071214320113E-1   -6.549233260455480E-1
 9.260000000000000E9    -6.255009172034758E-2   -7.376795629743211E-1
 9.270000000000000E9    -4.562785754527671E-1   -5.761505165049486E-1
 9.280000000000000E9    -6.951002364883023E-1   -2.239792026024519E-1
 9.290000000000000E9    -7.016063874177456E-1    2.000327324360854E-1
 9.300000000000000E9    -4.766215188206969E-1    5.579998765130123E-1
 9.310000000000000E9    -9.582069865245363E-2    7.292925760865162E-1
 9.320000000000000E9     3.189911881510732E-1    6.667140533977062E-1
 9.330000000000000E9     6.345074594241054E-1    3.854338720381264E-1
 9.340000000000000E9     7.428165676739547E-1   -2.481603737941446E-2
 9.350000000000000E9     6.061441558007841E-1   -4.258733588881535E-1
 9.360000000000000E9     2.629251328321475E-1   -6.834244092628230E-1
 9.370000000000000E9    -1.685578698471929E-1   -7.085556342722585E-1
 9.380000000000000E9    -5.408889948859307E-1   -4.886430153449496E-1
 9.390000000000000E9    -7.221654366978130E-1   -9.677561535304188E-2
 9.400000000000000E9    -6.444298813596769E-1    3.284960446758174E-1
 9.410000000000000E9    -3.401821782482121E-1    6.404172775829191E-1
 9.420000000000000E9     8.745567631113146E-2    7.219807983426939E-1
 9.430000000000000E9     4.842388403685129E-1    5.430183534516411E-1
 9.440000000000000E9     7.061303020570364E-1    1.664087175498559E-1
 9.450000000000000E9     6.676860558137429E-1   -2.734027117134795E-1
 9.460000000000000E9     3.789628017889409E-1   -6.116608901452081E-1
 9.470000000000000E9    -5.896682547981372E-2   -7.134837419659007E-1
 9.480000000000000E9    -4.744216202732656E-1   -5.302877135074371E-1
 9.490000000000000E9    -6.961494759096329E-1   -1.316581137969661E-1
 9.500000000000000E9    -6.325754394190242E-1    3.194575554853021E-1
 9.510000000000000E9    -3.092299500865838E-1    6.326849180252826E-1
 9.520000000000000E9     1.371344999242278E-1    6.870454918111263E-1
 9.530000000000000E9     5.276885297745073E-1    4.607867048697755E-1
 9.540000000000000E9     7.011171698648094E-1    4.248564620747029E-2
 9.550000000000000E9     5.813396948687132E-1   -3.934276512279603E-1
 9.560000000000000E9     2.124188782418541E-1   -6.636018960849136E-1
 9.570000000000000E9    -2.419756896865800E-1   -6.519029080267871E-1
 9.580000000000000E9    -5.921895149165450E-1   -3.693112677025310E-1
 9.590000000000000E9    -6.983491031919143E-1    6.397285754860510E-2
 9.600000000000000E9    -5.213818202550120E-1    4.698825967447081E-1
 9.610000000000000E9    -1.438136108616561E-1    6.913239523418071E-1
 9.620000000000000E9     2.872539445332529E-1    6.479965168465318E-1
 9.630000000000000E9     6.087628758140969E-1    3.623763621402520E-1
 9.640000000000000E9     7.033614236461634E-1   -5.587482487466417E-2
 9.650000000000000E9     5.373711648476751E-1   -4.518412035156050E-1
 9.660000000000000E9     1.778618078257942E-1   -6.777374979781072E-1
 9.670000000000000E9    -2.446483573585146E-1   -6.537336121613488E-1
 9.680000000000000E9    -5.744367663805564E-1   -3.928385066418792E-1
 9.690000000000000E9    -6.960184959658255E-1    4.425975432445287E-3
 9.700000000000000E9    -5.765664474063233E-1    3.951890852577671E-1
 9.710000000000000E9    -2.632013563331045E-1    6.463799175497378E-1
 9.720000000000000E9     1.329079362398926E-1    6.847324888218606E-1
 9.730000000000000E9     4.850038422675493E-1    5.043787662921696E-1
 9.740000000000000E9     6.838781592634160E-1    1.638127852741247E-1
 9.750000000000000E9     6.660656248194550E-1   -2.294696433208309E-1
 9.760000000000000E9     4.312686325250005E-1   -5.527699965099049E-1
 9.770000000000000E9     5.827878016389886E-2   -6.962304409041374E-1
 9.780000000000000E9    -3.299186769778661E-1   -6.139542222393544E-1
 9.790000000000000E9    -6.086647261493354E-1   -3.366855499400485E-1
 9.800000000000000E9    -6.922868199254081E-1    4.511187101126300E-2
 9.810000000000000E9    -5.607892825893089E-1    4.114163567329833E-1
 9.820000000000000E9    -2.564731014974106E-1    6.504357543114049E-1
 9.830000000000000E9     1.270499192164271E-1    6.899407233805270E-1
 9.840000000000000E9     4.713992618548913E-1    5.193408596956658E-1
 9.850000000000000E9     6.728528581374418E-1    1.922546625242293E-1
 9.860000000000000E9     6.754997363594992E-1   -1.928826794166564E-1
 9.870000000000000E9     4.716201271588742E-1   -5.207420584705185E-1
 9.880000000000000E9     1.223814016344400E-1   -6.897752139152871E-1
 9.890000000000000E9    -2.648305284533722E-1   -6.454577002231737E-1
 9.900000000000000E9    -5.682354478569029E-1   -4.010540852296394E-1
 9.910000000000000E9    -6.938332365266074E-1   -3.713235426359923E-2
 9.920000000000000E9    -6.046317006200257E-1    3.358870851982168E-1
 9.930000000000000E9    -3.326396746994836E-1    6.032570363408865E-1
 9.940000000000000E9     3.710581084074389E-2    6.879455939593198E-1
 9.950000000000000E9     3.952118798927516E-1    5.680320588496837E-1
 9.960000000000000E9     6.321133987324922E-1    2.746200719609461E-1
 9.970000000000000E9     6.804662274006581E-1   -1.014692920916665E-1
 9.980000000000000E9     5.221347850628735E-1   -4.483576854721951E-1
 9.990000000000000E9     2.028470160274662E-1   -6.584537294860616E-1
 1.000000000000000E+10  -1.788742776078445E-1   -6.655359704910206E-1
 1.001000000000000E+10  -5.043662740235959E-1   -4.642078357246983E-1
 1.002000000000000E+10  -6.737885599844040E-1   -1.200711022922449E-1
 1.003000000000000E+10  -6.334777408650099E-1    2.606630989318396E-1
 1.004000000000000E+10  -3.943951810059319E-1    5.602352865981396E-1
 1.005000000000000E+10  -3.039201628883595E-2    6.820551426489851E-1
 1.006000000000000E+10   3.449886395831772E-1    5.920551755225112E-1
 1.007000000000000E+10   6.114183254121864E-1    3.122625946959315E-1
 1.008000000000000E+10   6.826433986260658E-1   -6.788997651736815E-2
 1.009000000000000E+10   5.343507040607992E-1   -4.277827858572378E-1
 1.010000000000000E+10   2.089345373998131E-1   -6.505277880600389E-1
 1.011000000000000E+10  -1.854976599287739E-1   -6.605435072898752E-1
 1.012000000000000E+10  -5.209246009144524E-1   -4.468984738114806E-1
 1.013000000000000E+10  -6.797861166929564E-1   -7.897678952491832E-2
 1.014000000000000E+10  -6.048328653768621E-1    3.166577300112339E-1
 1.015000000000000E+10  -3.216240355857051E-1    6.043421335535744E-1
 1.016000000000000E+10   7.369160509191076E-2    6.808216153096842E-1
 1.017000000000000E+10   4.465428308794144E-1    5.204754016174290E-1
 1.018000000000000E+10   6.670959295947744E-1    1.732981062682904E-1
 1.019000000000000E+10   6.502992881664454E-1   -2.439399750761648E-1
 1.020000000000000E+10   3.926272225363179E-1   -5.788014975687353E-1
 1.021000000000000E+10  -2.102794213991977E-2   -6.982827165994870E-1
 1.022000000000000E+10  -4.289024413081391E-1   -5.506050299408574E-1
 1.023000000000000E+10  -6.719295433541060E-1   -1.908075641718310E-1
 1.024000000000000E+10  -6.566050694130535E-1    2.429460918043638E-1
 1.025000000000000E+10  -3.876033441971502E-1    5.846746989616697E-1
 1.026000000000000E+10   3.551182451225786E-2    7.053026014426226E-1
 1.027000000000000E+10   4.507797359191254E-1    5.523139273921276E-1
 1.028000000000000E+10   6.945673530167543E-1    1.806919059954920E-1
 1.029000000000000E+10   6.692515554666003E-1   -2.648451109955755E-1
 1.030000000000000E+10   3.826566739626353E-1   -6.113014763097211E-1
 1.031000000000000E+10  -5.152304596187497E-2   -7.231138998812952E-1
 1.032000000000000E+10  -4.679990198724343E-1   -5.542937615468403E-1
 1.033000000000000E+10  -7.024510413461159E-1   -1.685990251438406E-1
 1.034000000000000E+10  -6.612948320382261E-1    2.804928058723861E-1
 1.035000000000000E+10  -3.665323116146972E-1    6.164264112140162E-1
 1.036000000000000E+10   6.309016961722057E-2    7.127930069906995E-1
 1.037000000000000E+10   4.668801975198617E-1    5.413376991944504E-1
 1.038000000000000E+10   6.973897200662166E-1    1.686788878187228E-1
 1.039000000000000E+10   6.706438540709589E-1   -2.690739325920160E-1
 1.040000000000000E+10   3.954292692806973E-1   -6.096352410167355E-1
 1.041000000000000E+10  -2.950237223086194E-2   -7.262742808311314E-1
 1.042000000000000E+10  -4.418793117708971E-1   -5.767559659398562E-1
 1.043000000000000E+10  -6.905307697723564E-1   -2.224954433816874E-1
 1.044000000000000E+10  -6.942235242275260E-1    2.032750999560009E-1
 1.045000000000000E+10  -4.610081732433675E-1    5.530621043452378E-1
 1.046000000000000E+10  -7.424868609050929E-2    7.161366498412286E-1
 1.047000000000000E+10   3.348275354890190E-1    6.400117047599126E-1
 1.048000000000000E+10   6.326251249922136E-1    3.510784015261666E-1
 1.049000000000000E+10   7.199187122886921E-1   -5.467749720411336E-2
 1.050000000000000E+10   5.675836879584473E-1   -4.421058675511185E-1
 1.051000000000000E+10   2.301447007608360E-1   -6.827064109251344E-1
 1.052000000000000E+10  -1.826896487612251E-1   -6.943486763607760E-1
 1.053000000000000E+10  -5.331009489591930E-1   -4.751452646118293E-1
 1.054000000000000E+10  -7.041217058151832E-1   -9.800351678011204E-2
 1.055000000000000E+10  -6.391789511953575E-1    3.090457721495318E-1
 1.056000000000000E+10  -3.678403461878674E-1    6.064435482305621E-1
 1.057000000000000E+10   1.868024472161960E-2    7.066375673772676E-1
 1.058000000000000E+10   3.949395178824620E-1    5.852638586057157E-1
 1.059000000000000E+10   6.488641575298397E-1    2.850051184248851E-1
 1.060000000000000E+10   7.055609609541675E-1   -1.050282404405549E-1
 1.061000000000000E+10   5.386754521682368E-1   -4.654277889419757E-1
 1.062000000000000E+10   1.998037870197211E-1   -6.826066531027296E-1
 1.063000000000000E+10  -2.064632272871237E-1   -6.797008810900727E-1
 1.064000000000000E+10  -5.442189697994450E-1   -4.532568333132304E-1
 1.065000000000000E+10  -7.000479838583165E-1   -8.038287762643226E-2
 1.066000000000000E+10  -6.240103011244069E-1    3.194437852374967E-1
 1.067000000000000E+10  -3.482413083913571E-1    6.097249212564361E-1
 1.068000000000000E+10   3.497312371499167E-2    7.050399271859774E-1
 1.069000000000000E+10   4.065188689140011E-1    5.810559532929286E-1
 1.070000000000000E+10   6.530244907582493E-1    2.782604650530702E-1
 1.071000000000000E+10   7.074475245829567E-1   -1.103780319721955E-1
 1.072000000000000E+10   5.445707368697353E-1   -4.674787413996409E-1
 1.073000000000000E+10   2.132341633824129E-1   -6.810517094942996E-1
 1.074000000000000E+10  -1.850991524943705E-1   -6.813776598073483E-1
 1.075000000000000E+10  -5.244839687620927E-1   -4.622427228155329E-1
 1.076000000000000E+10  -6.889078359063164E-1   -9.802063056684183E-2
 1.077000000000000E+10  -6.235680393722851E-1    2.993920972135107E-1
 1.078000000000000E+10  -3.474268322295150E-1    5.937590995485202E-1
 1.079000000000000E+10   4.254577209733340E-2    6.856232021651375E-1
 1.080000000000000E+10   4.147779376356443E-1    5.522156351046720E-1
 1.081000000000000E+10   6.479743260657909E-1    2.388213145765907E-1
 1.082000000000000E+10   6.752336171984287E-1   -1.496314750924003E-1
 1.083000000000000E+10   4.881851698282638E-1   -4.931355871848082E-1
 1.084000000000000E+10   1.416604766810215E-1   -6.805970612758128E-1
 1.085000000000000E+10  -2.517827923595894E-1   -6.452760599019167E-1
 1.086000000000000E+10  -5.621502242402153E-1   -3.916654961701665E-1
 1.087000000000000E+10  -6.798582539251325E-1   -9.027980794495828E-3
 1.088000000000000E+10  -5.669417328804033E-1    3.720094109571871E-1
 1.089000000000000E+10  -2.643924892912600E-1    6.253171737739444E-1
 1.090000000000000E+10   1.267752864023927E-1    6.683575527124473E-1
 1.091000000000000E+10   4.809457512255167E-1    4.900790336291962E-1
 1.092000000000000E+10   6.782611481471738E-1    1.477720223857325E-1
 1.093000000000000E+10   6.517439085046064E-1   -2.468742497086718E-1
 1.094000000000000E+10   4.074515131675042E-1   -5.610935710187618E-1
 1.095000000000000E+10   2.474200233687992E-2   -6.866372141708068E-1
 1.096000000000000E+10  -3.624896402525868E-1   -5.807571007886712E-1
 1.097000000000000E+10  -6.227688283009528E-1   -2.723614221133619E-1
 1.098000000000000E+10  -6.614802074453304E-1    1.325824472222548E-1
 1.099000000000000E+10  -4.610050499050470E-1    4.890227098338651E-1
 1.100000000000000E+10  -9.427709895426055E-2    6.674309091826672E-1
 1.101000000000000E+10   3.036378122187383E-1    6.054474238671327E-1
 1.102000000000000E+10   5.940020415183986E-1    3.292548752319457E-1
 1.103000000000000E+10   6.793885952912583E-1   -6.041094378871417E-2
 1.104000000000000E+10   5.331707024248663E-1   -4.322905824731589E-1
 1.105000000000000E+10   2.007251107570799E-1   -6.596582166265412E-1
 1.106000000000000E+10  -2.097974913058115E-1   -6.534191308157447E-1
 1.107000000000000E+10  -5.469260487536824E-1   -4.104376030107770E-1
 1.108000000000000E+10  -6.821225721091114E-1   -1.760358745246726E-2
 1.109000000000000E+10  -5.682716715283697E-1    3.775418216754645E-1
 1.110000000000000E+10  -2.533775259259947E-1    6.349644921136258E-1
 1.111000000000000E+10   1.546395795869137E-1    6.702131495176925E-1
 1.112000000000000E+10   5.078799582449219E-1    4.763662166925917E-1
 1.113000000000000E+10   6.920823842057943E-1    1.208469624504779E-1
 1.114000000000000E+10   6.458874393766121E-1   -2.784679028308189E-1
 1.115000000000000E+10   3.819820780007547E-1   -5.878397586415091E-1
 1.116000000000000E+10  -7.706671896650135E-3   -7.027997026460813E-1
 1.117000000000000E+10  -3.968837607145775E-1   -5.773326570810069E-1
 1.118000000000000E+10  -6.497167967662483E-1   -2.519149603735703E-1
 1.119000000000000E+10  -6.757615399531672E-1    1.623625641751094E-1
 1.120000000000000E+10  -4.640746182142673E-1    5.200737019409197E-1
 1.121000000000000E+10  -9.750817432475918E-2    6.939950112594434E-1
 1.122000000000000E+10   3.024431621251953E-1    6.348886867199641E-1
 1.123000000000000E+10   6.022602189052344E-1    3.673507419827431E-1
 1.124000000000000E+10   7.080767136452614E-1   -1.833742815523445E-2
 1.125000000000000E+10   5.876893180167668E-1   -4.002678921409317E-1
 1.126000000000000E+10   2.706677209206877E-1   -6.530323831947835E-1
 1.127000000000000E+10  -1.400220793948569E-1   -6.908242691331579E-1
 1.128000000000000E+10  -5.069759259282238E-1   -4.891227502237392E-1
 1.129000000000000E+10  -6.946519568669016E-1   -1.131176568033627E-1
 1.130000000000000E+10  -6.354649527650980E-1    2.985860270056944E-1
 1.131000000000000E+10  -3.506873594485307E-1    6.084581795893231E-1
 1.132000000000000E+10   4.740743799744150E-2    7.077421595104708E-1
 1.133000000000000E+10   4.276988789467452E-1    5.759856631759325E-1
 1.134000000000000E+10   6.729623080381953E-1    2.584591177284277E-1
 1.135000000000000E+10   7.031018453382527E-1   -1.462088349561737E-1
 1.136000000000000E+10   5.122605270791483E-1   -5.057709039258781E-1
 1.137000000000000E+10   1.495865348325608E-1   -7.009029394359219E-1
 1.138000000000000E+10  -2.646734816885345E-1   -6.577706327677403E-1
 1.139000000000000E+10  -5.850915366209253E-1   -3.854426386556292E-1
 1.140000000000000E+10  -6.959078452645269E-1    2.295906426033734E-2
 1.141000000000000E+10  -5.598004760669910E-1    4.141259103486288E-1
 1.142000000000000E+10  -2.288878940941302E-1    6.602739513110233E-1
 1.143000000000000E+10   1.808873407759407E-1    6.797206740831782E-1
 1.144000000000000E+10   5.299619168612377E-1    4.706643113113588E-1
 1.145000000000000E+10   7.054158678935833E-1    1.076296636245555E-1
 1.146000000000000E+10   6.483782662057087E-1   -2.906750900034629E-1
 1.147000000000000E+10   3.802959504076796E-1   -5.942778656001659E-1
 1.148000000000000E+10  -1.384118982594415E-2   -7.012819535586864E-1
 1.149000000000000E+10  -4.034954341999901E-1   -5.695498987750908E-1
 1.150000000000000E+10  -6.502322559823128E-1   -2.397631560273591E-1
 1.151000000000000E+10  -6.636559158666082E-1    1.809104626628822E-1
 1.152000000000000E+10  -4.385857871833441E-1    5.318132279558782E-1
 1.153000000000000E+10  -6.409460156857287E-2    6.913714284688751E-1
 1.154000000000000E+10   3.275117201756068E-1    6.164608602088172E-1
 1.155000000000000E+10   6.106796870549641E-1    3.376329346603548E-1
 1.156000000000000E+10   6.986535530462384E-1   -5.158384302707717E-2
 1.157000000000000E+10   5.562055202341981E-1   -4.267999527828830E-1
 1.158000000000000E+10   2.241376290608546E-1   -6.595651694893104E-1
 1.159000000000000E+10  -1.850004355449983E-1   -6.631767659909195E-1
 1.160000000000000E+10  -5.269147554060082E-1   -4.328391408856006E-1
 1.161000000000000E+10  -6.770329989861972E-1   -5.185974489273926E-2
 1.162000000000000E+10  -5.832497164988620E-1    3.456925748075004E-1
 1.163000000000000E+10  -2.821220059970020E-1    6.189292326321556E-1
 1.164000000000000E+10   1.172451461370042E-1    6.750894214416958E-1
 1.165000000000000E+10   4.757176746292182E-1    5.015018128805039E-1
 1.166000000000000E+10   6.709834176058095E-1    1.647888107839484E-1
 1.167000000000000E+10   6.494909216004403E-1   -2.250906397284715E-1
 1.168000000000000E+10   4.191919969742725E-1   -5.416675567725393E-1
 1.169000000000000E+10   5.256401315286677E-2   -6.825243246271432E-1
 1.170000000000000E+10  -3.324489456155025E-1   -5.969007070114445E-1
 1.171000000000000E+10  -6.068757705398848E-1   -3.021726820161395E-1
 1.172000000000000E+10  -6.729929060657223E-1    9.816979282344157E-2
 1.173000000000000E+10  -5.050492567616358E-1    4.652038138214128E-1
 1.174000000000000E+10  -1.649929043579337E-1    6.713978095441355E-1
 1.175000000000000E+10   2.264209138998148E-1    6.520443633339916E-1
 1.176000000000000E+10   5.462309788206664E-1    4.248383064241890E-1
 1.177000000000000E+10   6.905329332542883E-1    6.533498677892075E-2
 1.178000000000000E+10   6.169156515217402E-1   -3.151675188656811E-1
 1.179000000000000E+10   3.440103993433726E-1   -5.953041718065952E-1
 1.180000000000000E+10  -4.210311215303712E-2   -6.776002520440129E-1
 1.181000000000000E+10  -4.125237200446210E-1   -5.351875832807976E-1
 1.182000000000000E+10  -6.377852248338592E-1   -2.094139309194084E-1
 1.183000000000000E+10  -6.435264135074926E-1    1.838333687902380E-1
 1.184000000000000E+10  -4.342279187199290E-1    5.131271584264547E-1
 1.185000000000000E+10  -8.251125536845708E-2    6.745149489334906E-1
 1.186000000000000E+10   2.895928863958149E-1    6.189807837766911E-1
 1.187000000000000E+10   5.735084568753239E-1    3.739319539795659E-1
 1.188000000000000E+10   6.850911088096013E-1    1.632954724261170E-2
 1.189000000000000E+10   5.926041023313919E-1   -3.465385960043317E-1
 1.190000000000000E+10   3.225575255933814E-1   -6.071471542342495E-1
 1.191000000000000E+10  -5.141811920909168E-2   -6.756165561275849E-1
 1.192000000000000E+10  -4.086631466964561E-1   -5.321485681829339E-1
 1.193000000000000E+10  -6.339125962393889E-1   -2.159245400942206E-1
 1.194000000000000E+10  -6.491427537871061E-1    1.721817663102575E-1
 1.195000000000000E+10  -4.484685526600534E-1    5.015666500695563E-1
 1.196000000000000E+10  -9.758786258167641E-2    6.685155234495979E-1
 1.197000000000000E+10   2.840213543208735E-1    6.186315394557201E-1
 1.198000000000000E+10   5.759128655751466E-1    3.726299571245675E-1
 1.199000000000000E+10   6.891860015339378E-1    8.304676789913564E-3
 1.200000000000000E+10   5.860826929792015E-1   -3.626063559789496E-1
 1.201000000000000E+10   2.989726423439258E-1   -6.252164248518665E-1
 1.202000000000000E+10  -9.065402932380455E-2   -6.876933650692837E-1
 1.203000000000000E+10  -4.529699937395007E-1   -5.213367415023027E-1
 1.204000000000000E+10  -6.627286512508455E-1   -1.801896669751432E-1
 1.205000000000000E+10  -6.496409906637454E-1    2.205679278096437E-1
 1.206000000000000E+10  -4.246897502235474E-1    5.430295557669058E-1
 1.207000000000000E+10  -5.990172950772610E-2    6.883800889409375E-1
 1.208000000000000E+10   3.275878586027337E-1    6.100971109274116E-1
 1.209000000000000E+10   6.113576706798305E-1    3.308982229122668E-1
 1.210000000000000E+10   6.963327492433680E-1   -5.808656386302549E-2
 1.211000000000000E+10   5.488362586581584E-1   -4.275055462901072E-1
 1.212000000000000E+10   2.165816094937602E-1   -6.555977164059732E-1
 1.213000000000000E+10  -1.896350827430071E-1   -6.613951477538138E-1
 1.214000000000000E+10  -5.315197176638179E-1   -4.395458049158923E-1
 1.215000000000000E+10  -6.893131761835853E-1   -6.456852622230365E-2
 1.216000000000000E+10  -6.055281462254466E-1    3.391254022285342E-1
 1.217000000000000E+10  -3.099399295123611E-1    6.259540435370763E-1
 1.218000000000000E+10   9.271145736217852E-2    6.969475038295515E-1
 1.219000000000000E+10   4.625343123200661E-1    5.325105568400428E-1
 1.220000000000000E+10   6.770338307517683E-1    1.925990779761042E-1
 1.221000000000000E+10   6.699887531140361E-1   -2.118858764910695E-1
 1.222000000000000E+10   4.413886307503264E-1   -5.434846298883014E-1
 1.223000000000000E+10   6.602936909132245E-2   -6.924440775107337E-1
 1.224000000000000E+10  -3.308082756972957E-1   -6.051418993112625E-1
 1.225000000000000E+10  -6.117023508935203E-1   -3.082983752600207E-1
 1.226000000000000E+10  -6.786884451002038E-1    9.259740315553543E-2
 1.227000000000000E+10  -5.056199711360700E-1    4.595974680731801E-1
 1.228000000000000E+10  -1.548028639954130E-1    6.643204025871607E-1
 1.229000000000000E+10   2.513618766946064E-1    6.357386264205378E-1
 1.230000000000000E+10   5.709364373259288E-1    3.835881027241925E-1
 1.231000000000000E+10   6.869791331250155E-1    2.900324053980344E-4
 1.232000000000000E+10   5.645962939315692E-1   -3.832625702753121E-1
 1.233000000000000E+10   2.483192579400332E-1   -6.305285016855245E-1
 1.234000000000000E+10  -1.487702770778005E-1   -6.590917075997126E-1
 1.235000000000000E+10  -4.920724546384201E-1   -4.635726724837175E-1
 1.236000000000000E+10  -6.630219091038271E-1   -1.055795689485444E-1
 1.237000000000000E+10  -6.055443297547599E-1    2.875509104136891E-1
 1.238000000000000E+10  -3.365742842363434E-1    5.804389054029823E-1
 1.239000000000000E+10   4.989082873232217E-2    6.684862715650036E-1
 1.240000000000000E+10   4.155420337665369E-1    5.217270359231382E-1
 1.241000000000000E+10   6.376828995356425E-1    1.921160420321406E-1
 1.242000000000000E+10   6.332516665523834E-1   -2.029624437462981E-1
 1.243000000000000E+10   4.058200344387212E-1   -5.241469996522126E-1
 1.244000000000000E+10   3.677444263429777E-2   -6.584945188199542E-1
 1.245000000000000E+10  -3.421759054799651E-1   -5.594971423649726E-1
 1.246000000000000E+10  -6.006258114795064E-1   -2.720071593510913E-1
 1.247000000000000E+10  -6.487722405897244E-1    1.081335934555852E-1
 1.248000000000000E+10  -4.748015617000065E-1    4.470896837751367E-1
 1.249000000000000E+10  -1.428460327235158E-1    6.314120722516382E-1
 1.250000000000000E+10   2.345553436480302E-1    6.028554775122513E-1
