#  HZ   S   RI   R     50.00 
! Rohde & Schwarz Vector Network Analyzer 
! Rohde-Schwarz,ZNA43-4Port,1332450044101932,2.92
! Created: UTC 6/9/2026, 6:30:42 AM
! freq[Hz]                re:S11                  im:S11
 8.000000000000000E9     7.321060741924822E-1   -6.638992891539114E-2
 8.010000000000000E9     5.306743528524042E-1   -5.124332926479079E-1
 8.020000000000000E9     1.055763009415206E-1   -7.293475394068495E-1
 8.030000000000000E9    -3.584585905986600E-1   -6.398566780425877E-1
 8.040000000000000E9    -6.717817293185772E-1   -2.854844661338202E-1
 8.050000000000000E9    -7.064720000646963E-1    1.847276825462797E-1
 8.060000000000000E9    -4.642584336294042E-1    5.711675965712896E-1
 8.070000000000000E9    -4.569153634421470E-2    7.373563454373929E-1
 8.080000000000000E9     3.850241259864093E-1    6.336205891751648E-1
 8.090000000000000E9     6.787480320364144E-1    3.095249581655865E-1
 8.100000000000000E9     7.409679026957202E-1   -1.203666843637706E-1
 8.110000000000000E9     5.489068843781491E-1   -5.094287009957899E-1
 8.120000000000000E9     1.709557674260875E-1   -7.269470287277584E-1
 8.130000000000000E9    -2.641792609464221E-1   -6.960960676074897E-1
 8.140000000000000E9    -6.057418949269667E-1   -4.288874509275575E-1
 8.150000000000000E9    -7.394802126496246E-1   -2.055607803904793E-2
 8.160000000000000E9    -6.212364302191626E-1    3.998534048651972E-1
 8.170000000000000E9    -2.986056697132116E-1    6.825958687306227E-1
 8.180000000000000E9     1.200179631031581E-1    7.428888808081446E-1
 8.190000000000000E9     5.009221519107386E-1    5.659270639952024E-1
 8.200000000000000E9     7.239340717621444E-1    2.100080376523203E-1
 8.210000000000000E9     7.268658769188445E-1   -2.122323738784286E-1
 8.220000000000000E9     5.005322336779414E-1   -5.665298456551592E-1
 8.230000000000000E9     1.161016481354602E-1   -7.401370474512386E-1
 8.240000000000000E9    -3.058279251736605E-1   -6.746976606875542E-1
 8.250000000000000E9    -6.284769070850832E-1   -3.845549841179335E-1
 8.260000000000000E9    -7.390064272499021E-1    2.591163827441140E-2
 8.270000000000000E9    -6.022565052496033E-1    4.330382296141330E-1
 8.280000000000000E9    -2.615472957327968E-1    6.954083225487160E-1
 8.290000000000000E9     1.634213953131291E-1    7.265352255724300E-1
 8.300000000000000E9     5.334515804873016E-1    5.256896116779319E-1
 8.310000000000000E9     7.308443329084505E-1    1.586313435131156E-1
 8.320000000000000E9     7.003116031472244E-1   -2.594359786544454E-1
 8.330000000000000E9     4.442984724900005E-1   -5.989226393569032E-1
 8.340000000000000E9     3.723405147065770E-2   -7.415575299764970E-1
 8.350000000000000E9    -3.816662639850399E-1   -6.288802872451658E-1
 8.360000000000000E9    -6.680294403119390E-1   -2.893677271958175E-1
 8.370000000000000E9    -7.107915153291403E-1    1.522006817342519E-1
 8.380000000000000E9    -4.975051451316155E-1    5.360010590956935E-1
 8.390000000000000E9    -1.084787397221524E-1    7.289975318514096E-1
 8.400000000000000E9     3.188257066978308E-1    6.679673371886357E-1
 8.410000000000000E9     6.441989874126611E-1    3.784316554064119E-1
 8.420000000000000E9     7.508172550748488E-1   -4.236778000057123E-2
 8.430000000000000E9     5.994637147062962E-1   -4.503554764734742E-1
 8.440000000000000E9     2.388266496364631E-1   -7.011877713442278E-1
 8.450000000000000E9    -2.078981155580934E-1   -7.000303297748198E-1
 8.460000000000000E9    -5.711114689057688E-1   -4.434544504301796E-1
 8.470000000000000E9    -7.171695520247847E-1   -2.061017919422985E-2
 8.480000000000000E9    -5.862431115008575E-1    4.098425201359808E-1
 8.490000000000000E9    -2.268727794533450E-1    6.808730391168242E-1
 8.500000000000000E9     2.200536129528527E-1    6.901645130736442E-1
 8.510000000000000E9     5.801894802139396E-1    4.377630504527854E-1
 8.520000000000000E9     7.261803334296623E-1    2.586349531734490E-2
 8.530000000000000E9     6.088885252831693E-1   -3.953633730468826E-1
 8.540000000000000E9     2.660973569532779E-1   -6.731576498469116E-1
 8.550000000000000E9    -1.789474726908425E-1   -6.944507720354400E-1
 8.560000000000000E9    -5.551209326365166E-1   -4.418669230347282E-1
 8.570000000000000E9    -7.070024951954232E-1   -1.404648724116741E-2
 8.580000000000000E9    -5.759954423963766E-1    4.143700268156202E-1
 8.590000000000000E9    -2.231885336613633E-1    6.784982983879509E-1
 8.600000000000000E9     2.138029375669478E-1    6.859167323372376E-1
 8.610000000000000E9     5.778288940002934E-1    4.428798461215742E-1
 8.620000000000000E9     7.333337662493424E-1    3.894173692737807E-2
 8.630000000000000E9     6.269970869840958E-1   -3.789530428999819E-1
 8.640000000000000E9     2.984494966361221E-1   -6.597830936930397E-1
 8.650000000000000E9    -1.347462739715996E-1   -7.028187727965082E-1
 8.660000000000000E9    -5.115380450308209E-1   -4.913043061623646E-1
 8.670000000000000E9    -6.973833446447057E-1   -1.003029280872728E-1
 8.680000000000000E9    -6.232474752892687E-1    3.285632345222260E-1
 8.690000000000000E9    -3.137931214877253E-1    6.371376350340788E-1
 8.700000000000000E9     1.160463827225901E-1    7.106311720228820E-1
 8.710000000000000E9     5.031755023093685E-1    5.221139812115027E-1
 8.720000000000000E9     7.122951228084784E-1    1.477880470888084E-1
 8.730000000000000E9     6.733533713237135E-1   -2.769637863485050E-1
 8.740000000000000E9     4.026044232337250E-1   -6.058229445952036E-1
 8.750000000000000E9    -8.410870293916467E-3   -7.246181844772047E-1
 8.760000000000000E9    -4.191524699190825E-1   -5.851174772662824E-1
 8.770000000000000E9    -6.815963942738993E-1   -2.332532622305204E-1
 8.780000000000000E9    -6.937809037439778E-1    2.060002834242875E-1
 8.790000000000000E9    -4.521557286818840E-1    5.689410859807346E-1
 8.800000000000000E9    -4.901174161892516E-2    7.269583709144635E-1
 8.810000000000000E9     3.759790855119566E-1    6.321142604013470E-1
 8.820000000000000E9     6.717391287097542E-1    3.162586110358227E-1
 8.830000000000000E9     7.356147259268538E-1   -1.133093218939371E-1
 8.840000000000000E9     5.391148931371088E-1   -5.050412966268442E-1
 8.850000000000000E9     1.492547113583174E-1   -7.134875120880981E-1
 8.860000000000000E9    -2.899836701664547E-1   -6.627589356158938E-1
 8.870000000000000E9    -6.176269009178111E-1   -3.633744275477576E-1
 8.880000000000000E9    -7.084335092572713E-1    7.220690738245432E-2
 8.890000000000000E9    -5.275717853401590E-1    4.789255221647825E-1
 8.900000000000000E9    -1.451816177878415E-1    7.027062476168238E-1
 8.910000000000000E9     2.889377367481501E-1    6.596631408242627E-1
 8.920000000000000E9     6.172338474857982E-1    3.748725668472806E-1
 8.930000000000000E9     7.215559140315768E-1   -4.548701897504825E-2
 8.940000000000000E9     5.655800825138999E-1   -4.492059225561510E-1
 8.950000000000000E9     2.038859799649541E-1   -6.897051855738443E-1
 8.960000000000000E9    -2.361512117618300E-1   -6.699660073717922E-1
 8.970000000000000E9    -5.846699798658138E-1   -3.989032741072664E-1
 8.980000000000000E9    -7.084982049770366E-1    2.320504629279778E-2
 8.990000000000000E9    -5.613861909169477E-1    4.338005517783219E-1
 9.000000000000000E9    -2.049867737143277E-1    6.781101342634447E-1
 9.010000000000000E9     2.252082874683893E-1    6.777520452316551E-1
 9.020000000000000E9     5.723568782356285E-1    4.361302053717083E-1
 9.030000000000000E9     7.200891838949994E-1    4.195442987783962E-2
 9.040000000000000E9     6.161959334993525E-1   -3.692939066281958E-1
 9.050000000000000E9     2.922239499045486E-1   -6.505175273734902E-1
 9.060000000000000E9    -1.320310210171057E-1   -6.990214477733879E-1
 9.070000000000000E9    -5.072516817622926E-1   -4.920315673169424E-1
 9.080000000000000E9    -6.951579100872121E-1   -1.078856128984087E-1
 9.090000000000000E9    -6.320859834466834E-1    3.138027111580113E-1
 9.100000000000000E9    -3.425989325973693E-1    6.258916831953657E-1
 9.110000000000000E9     6.787825158414974E-2    7.152932270116144E-1
 9.120000000000000E9     4.577763112112993E-1    5.598414375812717E-1
 9.130000000000000E9     6.946317229277259E-1    2.138807217730101E-1
 9.140000000000000E9     6.996849179613461E-1   -2.044705477338845E-1
 9.150000000000000E9     4.727319892271722E-1   -5.553504094637913E-1
 9.160000000000000E9     8.324509578600579E-2   -7.178820543062664E-1
 9.170000000000000E9    -3.321126165223912E-1   -6.399654004601618E-1
 9.180000000000000E9    -6.349889194046148E-1   -3.470506551964351E-1
 9.190000000000000E9    -7.240703298981609E-1    6.247062735091657E-2
 9.200000000000000E9    -5.714009633714938E-1    4.506481069887982E-1
 9.210000000000000E9    -2.310688373001398E-1    6.967659128153021E-1
 9.220000000000000E9     1.854183091377975E-1    7.170106574451971E-1
 9.230000000000000E9     5.438467982950281E-1    5.086357253954575E-1
 9.240000000000000E9     7.317763471574422E-1    1.393051019825533E-1
 9.250000000000000E9     6.888430216934532E-1   -2.749880315866221E-1
 9.260000000000000E9     4.315143556573672E-1   -6.016310837065653E-1
 9.270000000000000E9     3.585416725314477E-2   -7.353682110243291E-1
 9.280000000000000E9    -3.691519480978082E-1   -6.301237926223079E-1
 9.290000000000000E9    -6.506054924689098E-1   -3.215667148171800E-1
 9.300000000000000E9    -7.203569777961348E-1    8.871591469333678E-2
 9.310000000000000E9    -5.582377381500183E-1    4.640292481186652E-1
 9.320000000000000E9    -2.219667328609413E-1    6.939315729456257E-1
 9.330000000000000E9     1.863132525348099E-1    7.090353743339480E-1
 9.340000000000000E9     5.400631407420580E-1    5.020545477183792E-1
 9.350000000000000E9     7.264389878795001E-1    1.379489450102515E-1
 9.360000000000000E9     6.844291437376175E-1   -2.666435871912134E-1
 9.370000000000000E9     4.298482061349490E-1   -5.893594870031219E-1
 9.380000000000000E9     4.097990814601125E-2   -7.274136865284193E-1
 9.390000000000000E9    -3.604195529065409E-1   -6.350584696491575E-1
 9.400000000000000E9    -6.448634873972418E-1   -3.391711051588692E-1
 9.410000000000000E9    -7.247649419485117E-1    6.887096615200346E-2
 9.420000000000000E9    -5.710035599259552E-1    4.546135299254498E-1
 9.430000000000000E9    -2.339211046373614E-1    6.939687609923612E-1
 9.440000000000000E9     1.770088614776821E-1    7.121893491093498E-1
 9.450000000000000E9     5.318037917429810E-1    5.052384470258701E-1
 9.460000000000000E9     7.220700627678150E-1    1.360344161435220E-1
 9.470000000000000E9     6.805059206275649E-1   -2.784416385993152E-1
 9.480000000000000E9     4.159545172813803E-1   -6.048595604799230E-1
 9.490000000000000E9     1.047042721102105E-2   -7.313949595909036E-1
 9.500000000000000E9    -4.003129186432680E-1   -6.094094091629462E-1
 9.510000000000000E9    -6.741055093881603E-1   -2.792609677786002E-1
 9.520000000000000E9    -7.120231262189650E-1    1.465378918267301E-1
 9.530000000000000E9    -5.037024603662660E-1    5.201070530251242E-1
 9.540000000000000E9    -1.194681391759724E-1    7.142284364678282E-1
 9.550000000000000E9     3.110203399176166E-1    6.576625149391719E-1
 9.560000000000000E9     6.281324918312945E-1    3.627631601270507E-1
 9.570000000000000E9     7.168857144241734E-1   -6.826543596673743E-2
 9.580000000000000E9     5.350724338224088E-1   -4.741646877418596E-1
 9.590000000000000E9     1.470107037617880E-1   -6.971979473605500E-1
 9.600000000000000E9    -3.001955649413832E-1   -6.462130317517951E-1
 9.610000000000000E9    -6.275274094770568E-1   -3.318777619193969E-1
 9.620000000000000E9    -7.004532258999328E-1    1.164399130075774E-1
 9.630000000000000E9    -4.889774203884199E-1    5.165562908331055E-1
 9.640000000000000E9    -8.121203196766946E-2    7.063088512038221E-1
 9.650000000000000E9     3.565191312718922E-1    6.114626190142082E-1
 9.660000000000000E9     6.531539015634887E-1    2.710356293579854E-1
 9.670000000000000E9     6.810016599958397E-1   -1.795312886209990E-1
 9.680000000000000E9     4.264904970018450E-1   -5.535359616358929E-1
 9.690000000000000E9    -4.821641823527418E-3   -6.919484945710169E-1
 9.700000000000000E9    -4.282632378161912E-1   -5.367667209395107E-1
 9.710000000000000E9    -6.662845975141458E-1   -1.633792163366443E-1
 9.720000000000000E9    -6.274568217711710E-1    2.709599094476040E-1
 9.730000000000000E9    -3.411090300792857E-1    5.909248367391386E-1
 9.740000000000000E9     7.308406884907670E-2    6.812411217356825E-1
 9.750000000000000E9     4.590706848399546E-1    5.161778538549064E-1
 9.760000000000000E9     6.710930135943549E-1    1.576687574160857E-1
 9.770000000000000E9     6.372157086574084E-1   -2.589745373325489E-1
 9.780000000000000E9     3.689926247836203E-1   -5.790512777218660E-1
 9.790000000000000E9    -3.174974436283624E-2   -6.850174746431517E-1
 9.800000000000000E9    -4.168483361987624E-1   -5.428593870336836E-1
 9.810000000000000E9    -6.496258909558746E-1   -2.064262816876668E-1
 9.820000000000000E9    -6.536946932817764E-1    1.979670403039571E-1
 9.830000000000000E9    -4.329564139931749E-1    5.319654186954514E-1
 9.840000000000000E9    -6.716277113385188E-2    6.839713118378163E-1
 9.850000000000000E9     3.174260642113599E-1    6.083308210315562E-1
 9.860000000000000E9     6.018450577990448E-1    3.375037673184421E-1
 9.870000000000000E9     6.908230832284521E-1   -4.332100237200080E-2
 9.880000000000000E9     5.569312145253121E-1   -4.105126288639315E-1
 9.890000000000000E9     2.431925795848758E-1   -6.452091263842431E-1
 9.900000000000000E9    -1.484672266004020E-1   -6.701658694378589E-1
 9.910000000000000E9    -4.893020084918925E-1   -4.827902704650110E-1
 9.920000000000000E9    -6.706758172214693E-1   -1.410369058738948E-1
 9.930000000000000E9    -6.375030237124506E-1    2.416309519013930E-1
 9.940000000000000E9    -4.066551811059350E-1    5.446619217558926E-1
 9.950000000000000E9    -5.343430643997150E-2    6.792672413185522E-1
 9.960000000000000E9     3.111172979804628E-1    6.032218244616608E-1
 9.970000000000000E9     5.808463284681035E-1    3.473909200229187E-1
 9.980000000000000E9     6.762375440124970E-1   -1.276286424082318E-2
 9.990000000000000E9     5.673620081624696E-1   -3.696531324708863E-1
 1.000000000000000E+10   2.869857056397024E-1   -6.146168342300227E-1
 1.001000000000000E+10  -7.959214587520329E-2   -6.693871709282686E-1
 1.002000000000000E+10  -4.213549693252582E-1   -5.228718466877745E-1
 1.003000000000000E+10  -6.339784315577646E-1   -2.200057042815661E-1
 1.004000000000000E+10  -6.549610038649328E-1    1.483127055556048E-1
 1.005000000000000E+10  -4.773803520213337E-1    4.706887808449902E-1
 1.006000000000000E+10  -1.560225066979457E-1    6.529301184094460E-1
 1.007000000000000E+10   2.126018827779507E-1    6.383114705268641E-1
 1.008000000000000E+10   5.162784386518741E-1    4.317874275118084E-1
 1.009000000000000E+10   6.647453475798115E-1    9.705441822580464E-2
 1.010000000000000E+10   6.142453197449753E-1   -2.670922651746037E-1
 1.011000000000000E+10   3.802065212849171E-1   -5.546589427463511E-1
 1.012000000000000E+10   2.836855522655516E-2   -6.736936477760194E-1
 1.013000000000000E+10  -3.340419780450608E-1   -5.848785557703094E-1
 1.014000000000000E+10  -5.926665651890556E-1   -3.138662731929779E-1
 1.015000000000000E+10  -6.661700860346268E-1    5.408263989125225E-2
 1.016000000000000E+10  -5.347236083408942E-1    4.022893988448528E-1
 1.017000000000000E+10  -2.374642852562345E-1    6.249271320684585E-1
 1.018000000000000E+10   1.335114795115834E-1    6.552452190736712E-1
 1.019000000000000E+10   4.665795625416616E-1    4.827168704080349E-1
 1.020000000000000E+10   6.581804734841054E-1    1.558356300509300E-1
 1.021000000000000E+10   6.397581463518082E-1   -2.241310012956607E-1
 1.022000000000000E+10   4.140178320004282E-1   -5.370665552769235E-1
 1.023000000000000E+10   5.030646270349997E-2   -6.762281040883305E-1
 1.024000000000000E+10  -3.315456101425061E-1   -5.923176013103600E-1
 1.025000000000000E+10  -6.045133228133731E-1   -3.116006774443877E-1
 1.026000000000000E+10  -6.716009552737332E-1    7.612868705864545E-2
 1.027000000000000E+10  -5.147885790441422E-1    4.384398899844181E-1
 1.028000000000000E+10  -1.822222059271936E-1    6.544712273069474E-1
 1.029000000000000E+10   2.153540471463315E-1    6.475772242885193E-1
 1.030000000000000E+10   5.409373522762017E-1    4.181260206021232E-1
 1.031000000000000E+10   6.863788867215290E-1    3.917436182982011E-2
 1.032000000000000E+10   5.937626029620243E-1   -3.566544231235148E-1
 1.033000000000000E+10   2.916880248032688E-1   -6.324653890467749E-1
 1.034000000000000E+10  -1.187326034105289E-1   -6.863540011776319E-1
 1.035000000000000E+10  -4.889771807184145E-1   -4.906321036738369E-1
 1.036000000000000E+10  -6.836702869967495E-1   -1.212807106126025E-1
 1.037000000000000E+10  -6.272747214891023E-1    2.933792343586891E-1
 1.038000000000000E+10  -3.408656195359371E-1    5.987317453153753E-1
 1.039000000000000E+10   7.020397249922367E-2    6.837454014338461E-1
 1.040000000000000E+10   4.581739621379557E-1    5.160529402387598E-1
 1.041000000000000E+10   6.752770487737827E-1    1.542668252619850E-1
 1.042000000000000E+10   6.397856164664083E-1   -2.725564945647402E-1
 1.043000000000000E+10   3.561321504362880E-1   -6.009177991518218E-1
 1.044000000000000E+10  -6.905116957988651E-2   -6.983870239002642E-1
 1.045000000000000E+10  -4.687089536417115E-1   -5.261444927906442E-1
 1.046000000000000E+10  -6.854496952388774E-1   -1.468276730378522E-1
 1.047000000000000E+10  -6.406592098611072E-1    2.840544362530366E-1
 1.048000000000000E+10  -3.568576329938326E-1    6.068181686050595E-1
 1.049000000000000E+10   5.909433419770845E-2    7.048833022691109E-1
 1.050000000000000E+10   4.534135544523704E-1    5.438921108759327E-1
 1.051000000000000E+10   6.884785487789791E-1    1.816697802793125E-1
 1.052000000000000E+10   6.708000696001510E-1   -2.485196130445866E-1
 1.053000000000000E+10   4.078216113736625E-1   -5.888316019919143E-1
 1.054000000000000E+10  -5.844435382019610E-3   -7.146299740992925E-1
 1.055000000000000E+10  -4.194888986483765E-1   -5.750670765147565E-1
 1.056000000000000E+10  -6.767260448139268E-1   -2.282718082829034E-1
 1.057000000000000E+10  -6.845162139281923E-1    2.019637452567936E-1
 1.058000000000000E+10  -4.452027627106758E-1    5.543907841804214E-1
 1.059000000000000E+10  -5.435159709689634E-2    7.077844792337600E-1
 1.060000000000000E+10   3.515303133597013E-1    6.208136495539727E-1
 1.061000000000000E+10   6.353920033037725E-1    3.269392691432705E-1
 1.062000000000000E+10   7.117179124606943E-1   -7.576117855236099E-2
 1.063000000000000E+10   5.523066885566177E-1   -4.578459926517659E-1
 1.064000000000000E+10   2.040931280245912E-1   -6.891802895809851E-1
 1.065000000000000E+10  -2.154231321577439E-1   -6.854909792934921E-1
 1.066000000000000E+10  -5.602591399802257E-1   -4.396153853987160E-1
 1.067000000000000E+10  -7.065036497913635E-1   -4.414152411059510E-2
 1.068000000000000E+10  -6.088044966986530E-1    3.608041455297533E-1
 1.069000000000000E+10  -3.076239863828622E-1    6.402671682790302E-1
 1.070000000000000E+10   9.254744322205631E-2    7.066129242473140E-1
 1.071000000000000E+10   4.661708485364551E-1    5.462369369196040E-1
 1.072000000000000E+10   6.930789366500779E-1    2.129551755314166E-1
 1.073000000000000E+10   7.040357437839798E-1   -1.873283288624195E-1
 1.074000000000000E+10   4.974114444599272E-1   -5.297003987447269E-1
 1.075000000000000E+10   1.361126167895744E-1   -7.079366696734485E-1
 1.076000000000000E+10  -2.657493895294271E-1   -6.678672285157967E-1
 1.077000000000000E+10  -5.828612756588363E-1   -4.144674446515196E-1
 1.078000000000000E+10  -7.090845569027380E-1   -2.516730591727313E-2
 1.079000000000000E+10  -5.979461481415983E-1    3.699630107168910E-1
 1.080000000000000E+10  -2.896289395291049E-1    6.366761266747391E-1
 1.081000000000000E+10   1.064716347255133E-1    6.913105760235325E-1
 1.082000000000000E+10   4.639115590485929E-1    5.231349801227667E-1
 1.083000000000000E+10   6.742672069318011E-1    1.918825092651939E-1
 1.084000000000000E+10   6.758682965882046E-1   -2.010104716743193E-1
 1.085000000000000E+10   4.654196433892949E-1   -5.348692277142852E-1
 1.086000000000000E+10   1.055930881509811E-1   -6.969475480760584E-1
 1.087000000000000E+10  -2.878434057424225E-1   -6.371837815253910E-1
 1.088000000000000E+10  -5.857007032647998E-1   -3.725686633811694E-1
 1.089000000000000E+10  -6.913140525961750E-1    9.671186806685888E-3
 1.090000000000000E+10  -5.729958032209356E-1    3.856710646316244E-1
 1.091000000000000E+10  -2.640992885427635E-1    6.349270781013052E-1
 1.092000000000000E+10   1.272588212424249E-1    6.804897824664652E-1
 1.093000000000000E+10   4.794114777333728E-1    5.095217504587886E-1
 1.094000000000000E+10   6.813234191891185E-1    1.763177074014153E-1
 1.095000000000000E+10   6.690738234694122E-1   -2.128574196790129E-1
 1.096000000000000E+10   4.505475252682627E-1   -5.408671245258821E-1
 1.097000000000000E+10   8.867210347139341E-2   -6.970019677207423E-1
 1.098000000000000E+10  -3.010208948225771E-1   -6.293490319208603E-1
 1.099000000000000E+10  -5.911045660968584E-1   -3.557997636679510E-1
 1.100000000000000E+10  -6.810148080847808E-1    3.576396436878698E-2
 1.101000000000000E+10  -5.457357010086807E-1    4.106739171923715E-1
 1.102000000000000E+10  -2.231576679507513E-1    6.445740326325671E-1
 1.103000000000000E+10   1.719523845074936E-1    6.583624998359879E-1
 1.104000000000000E+10   5.063531068653920E-1    4.551429650310633E-1
 1.105000000000000E+10   6.768226489991653E-1    1.051508212367254E-1
 1.106000000000000E+10   6.251476516716711E-1   -2.777299086643311E-1
 1.107000000000000E+10   3.695648698704063E-1   -5.732299920288000E-1
 1.108000000000000E+10  -1.242019833360788E-2   -6.793508136034384E-1
 1.109000000000000E+10  -3.914506908153906E-1   -5.519963782131192E-1
 1.110000000000000E+10  -6.326880495641819E-1   -2.335305274043939E-1
 1.111000000000000E+10  -6.432449495488998E-1    1.695026289791061E-1
 1.112000000000000E+10  -4.284180013843321E-1    5.069521859061452E-1
 1.113000000000000E+10  -6.675898553027343E-2    6.657118489897660E-1
 1.114000000000000E+10   3.175879696425090E-1    5.960748086002245E-1
 1.115000000000000E+10   5.948038170039184E-1    3.239863491117199E-1
 1.116000000000000E+10   6.793312875838575E-1   -5.889627716536279E-2
 1.117000000000000E+10   5.373390572704120E-1   -4.249513945591555E-1
 1.118000000000000E+10   2.138783794137242E-1   -6.500540551031141E-1
 1.119000000000000E+10  -1.835518293608203E-1   -6.548119592604045E-1
 1.120000000000000E+10  -5.186007310192225E-1   -4.314190412930796E-1
 1.121000000000000E+10  -6.736696426824421E-1   -6.141724995186154E-2
 1.122000000000000E+10  -5.913713742090844E-1    3.314840357410506E-1
 1.123000000000000E+10  -3.022035911866355E-1    6.077615746929287E-1
 1.124000000000000E+10   8.818254190079207E-2    6.744077011298281E-1
 1.125000000000000E+10   4.466580349825087E-1    5.177701902681268E-1
 1.126000000000000E+10   6.571064945714001E-1    1.954299007908918E-1
 1.127000000000000E+10   6.580745261246218E-1   -1.890703715377774E-1
 1.128000000000000E+10   4.485330599324823E-1   -5.162593524966560E-1
 1.129000000000000E+10   8.803339843125238E-2   -6.780683181723730E-1
 1.130000000000000E+10  -3.063138385765670E-1   -6.105054859441471E-1
 1.131000000000000E+10  -5.919693151335539E-1   -3.235225798163307E-1
 1.132000000000000E+10  -6.666348785570624E-1    7.615356845565623E-2
 1.133000000000000E+10  -5.081436232997232E-1    4.448307566388949E-1
 1.134000000000000E+10  -1.787437258620735E-1    6.606603124795027E-1
 1.135000000000000E+10   2.103859539153259E-1    6.587664031637179E-1
 1.136000000000000E+10   5.384369571772097E-1    4.431073888560471E-1
 1.137000000000000E+10   6.987827256464407E-1    8.552474265219805E-2
 1.138000000000000E+10   6.388885282199928E-1   -3.034706169734040E-1
 1.139000000000000E+10   3.728755959241896E-1   -5.982819385838498E-1
 1.140000000000000E+10  -1.699676331359617E-2   -6.977582414207716E-1
 1.141000000000000E+10  -4.019975999391941E-1   -5.662033521779037E-1
 1.142000000000000E+10  -6.475203153935148E-1   -2.400634088823752E-1
 1.143000000000000E+10  -6.672833638095819E-1    1.687633361907056E-1
 1.144000000000000E+10  -4.538704208465468E-1    5.180161998512868E-1
 1.145000000000000E+10  -8.397159784194877E-2    6.874818645566434E-1
 1.146000000000000E+10   3.100399196927022E-1    6.286012580388584E-1
 1.147000000000000E+10   6.038769547643877E-1    3.624924684249846E-1
 1.148000000000000E+10   7.048115957473186E-1   -2.025897526797986E-2
 1.149000000000000E+10   5.827365437059794E-1   -3.984146433213875E-1
 1.150000000000000E+10   2.730621308905780E-1   -6.524535582996716E-1
 1.151000000000000E+10  -1.262670643548478E-1   -6.884371073641780E-1
 1.152000000000000E+10  -4.873041379762418E-1   -4.925456464281558E-1
 1.153000000000000E+10  -6.789301642999498E-1   -1.246486516596709E-1
 1.154000000000000E+10  -6.322921243791808E-1    2.834635737819832E-1
 1.155000000000000E+10  -3.714609921847700E-1    5.901840809370054E-1
 1.156000000000000E+10   1.958584252051206E-2    6.972682629901638E-1
 1.157000000000000E+10   4.011472767063156E-1    5.766713336040612E-1
 1.158000000000000E+10   6.552657600233566E-1    2.694432011553234E-1
 1.159000000000000E+10   6.992295678213849E-1   -1.280790316962247E-1
 1.160000000000000E+10   5.142098266600955E-1   -4.851206061622776E-1
 1.161000000000000E+10   1.590807785516241E-1   -6.862513886635720E-1
 1.162000000000000E+10  -2.515782547711288E-1   -6.532509170953714E-1
 1.163000000000000E+10  -5.744533183733539E-1   -3.909886637121001E-1
 1.164000000000000E+10  -6.912224897823140E-1    1.230281444533681E-2
 1.165000000000000E+10  -5.549912450988048E-1    4.118388461816886E-1
 1.166000000000000E+10  -2.253975932957404E-1    6.613636167562088E-1
 1.167000000000000E+10   1.850801433868522E-1    6.770019091526215E-1
 1.168000000000000E+10   5.303872594346252E-1    4.585496317355679E-1
 1.169000000000000E+10   6.949419169432453E-1    8.684016288023881E-2
 1.170000000000000E+10   6.285880252825796E-1   -3.126777402748874E-1
 1.171000000000000E+10   3.514211399128055E-1   -6.010549632387594E-1
 1.172000000000000E+10  -4.547676804369565E-2   -6.868984657224870E-1
 1.173000000000000E+10  -4.283710381075914E-1   -5.341083389722407E-1
 1.174000000000000E+10  -6.597307298303963E-1   -1.901015026732833E-1
 1.175000000000000E+10  -6.537852475238989E-1    2.210467086271472E-1
 1.176000000000000E+10  -4.084377129239335E-1    5.565488724060064E-1
 1.177000000000000E+10  -2.260383970279937E-2    6.917971216622649E-1
 1.178000000000000E+10   3.658934171665834E-1    5.914856425331864E-1
 1.179000000000000E+10   6.314781500811987E-1    2.968097081217037E-1
 1.180000000000000E+10   6.885876545529860E-1   -9.490433319468625E-2
 1.181000000000000E+10   5.189113296438614E-1   -4.594576219103583E-1
 1.182000000000000E+10   1.711148587622760E-1   -6.662986392197902E-1
 1.183000000000000E+10  -2.336614009256173E-1   -6.380809343489544E-1
 1.184000000000000E+10  -5.501923770145243E-1   -3.842751416867421E-1
 1.185000000000000E+10  -6.669588273548911E-1    4.218955738920463E-3
 1.186000000000000E+10  -5.475474201519479E-1    3.855491279470189E-1
 1.187000000000000E+10  -2.384551968587922E-1    6.286827437923425E-1
 1.188000000000000E+10   1.490596994228360E-1    6.579579997312689E-1
 1.189000000000000E+10   4.859437616595464E-1    4.723060850964779E-1
 1.190000000000000E+10   6.687811253627176E-1    1.379811106298477E-1
 1.191000000000000E+10   6.395666692048630E-1   -2.344015849594752E-1
 1.192000000000000E+10   4.132153198986609E-1   -5.337939116374796E-1
 1.193000000000000E+10   5.818796329258882E-2   -6.667941198003104E-1
 1.194000000000000E+10  -3.163595485407187E-1   -5.871162519299765E-1
 1.195000000000000E+10  -5.880988618852634E-1   -3.150534201040108E-1
 1.196000000000000E+10  -6.598607168770297E-1    6.370911183479852E-2
 1.197000000000000E+10  -5.122774766870400E-1    4.196806474129508E-1
 1.198000000000000E+10  -1.968256475114217E-1    6.352146239010816E-1
 1.199000000000000E+10   1.804878552731683E-1    6.449428305144244E-1
 1.200000000000000E+10   5.005812715428720E-1    4.510705536027367E-1
 1.201000000000000E+10   6.679126302146448E-1    1.132812309011939E-1
 1.202000000000000E+10   6.290051524118048E-1   -2.631140559590138E-1
 1.203000000000000E+10   3.904256440583869E-1   -5.610913645616993E-1
 1.204000000000000E+10   2.442158039608665E-2   -6.805225153678270E-1
 1.205000000000000E+10  -3.489761242597362E-1   -5.783952079972204E-1
 1.206000000000000E+10  -6.121265598301611E-1   -2.903930495276149E-1
 1.207000000000000E+10  -6.724442248396257E-1    9.085543084116825E-2
 1.208000000000000E+10  -5.151259674228109E-1    4.412796414107765E-1
 1.209000000000000E+10  -1.920525171538887E-1    6.502795287042898E-1
 1.210000000000000E+10   1.936189900643092E-1    6.514021340809094E-1
 1.211000000000000E+10   5.141605286720478E-1    4.528234018575276E-1
 1.212000000000000E+10   6.754700040373662E-1    1.098880045546445E-1
 1.213000000000000E+10   6.245783209984684E-1   -2.683270756757004E-1
 1.214000000000000E+10   3.763500394153391E-1   -5.615113675939051E-1
 1.215000000000000E+10   7.760781275737902E-3   -6.758326390248975E-1
 1.216000000000000E+10  -3.615297324583712E-1   -5.660808642291707E-1
 1.217000000000000E+10  -6.129011878669809E-1   -2.701926891749895E-1
 1.218000000000000E+10  -6.612692238419620E-1    1.168227532607884E-1
 1.219000000000000E+10  -4.895524015992085E-1    4.661433018425563E-1
 1.220000000000000E+10  -1.573250366125585E-1    6.628283697379996E-1
 1.221000000000000E+10   2.314134542563153E-1    6.426127377510714E-1
 1.222000000000000E+10   5.440157028112156E-1    4.172118713090850E-1
 1.223000000000000E+10   6.849021241939847E-1    6.184164404455281E-2
 1.224000000000000E+10   6.124847962280329E-1   -3.124621792968365E-1
 1.225000000000000E+10   3.485527553543967E-1   -5.887366747024068E-1
 1.226000000000000E+10  -2.762774703299178E-2   -6.825408420229292E-1
 1.227000000000000E+10  -3.942386013380627E-1   -5.572456764504002E-1
 1.228000000000000E+10  -6.328076173673456E-1   -2.516908213358621E-1
 1.229000000000000E+10  -6.652427897049666E-1    1.364610813612375E-1
 1.230000000000000E+10  -4.781356277774140E-1    4.826022036390704E-1
 1.231000000000000E+10  -1.371649444521131E-1    6.714627530560990E-1
 1.232000000000000E+10   2.536208795649055E-1    6.418317256152912E-1
 1.233000000000000E+10   5.655627328821546E-1    3.980046928849368E-1
 1.234000000000000E+10   6.907017229315222E-1    1.950797326991956E-2
 1.235000000000000E+10   5.874135942473182E-1   -3.656208536082079E-1
 1.236000000000000E+10   2.926315332912341E-1   -6.261296894635704E-1
 1.237000000000000E+10  -9.702562028773222E-2   -6.822972512805555E-1
 1.238000000000000E+10  -4.558555261868514E-1   -5.165163588867329E-1
 1.239000000000000E+10  -6.672870484525830E-1   -1.798414610368701E-1
 1.240000000000000E+10  -6.588424074869216E-1    2.186043834165717E-1
 1.241000000000000E+10  -4.289502777039386E-1    5.452889994539337E-1
 1.242000000000000E+10  -5.521351476620986E-2    6.922023178518382E-1
 1.243000000000000E+10   3.384388756519184E-1    6.078805353997108E-1
 1.244000000000000E+10   6.197534666816885E-1    3.185433827512009E-1
 1.245000000000000E+10   6.914831330046610E-1   -8.041815090003325E-2
 1.246000000000000E+10   5.239114882487481E-1   -4.573790309232615E-1
 1.247000000000000E+10   1.745021992835814E-1   -6.770990841832639E-1
 1.248000000000000E+10  -2.372922478052941E-1   -6.603378100806446E-1
 1.249000000000000E+10  -5.652285313220659E-1   -4.118958179930328E-1
 1.250000000000000E+10  -6.936074530310923E-1   -2.106730968400053E-2
