#  HZ   S   RI   R     50.00 
! Rohde & Schwarz Vector Network Analyzer 
! Rohde-Schwarz,ZNA43-4Port,1332450044101932,2.92
! Created: UTC 6/9/2026, 6:31:52 AM
! freq[Hz]                re:S11                  im:S11
 8.000000000000000E9    -3.383649557546121E-2   -7.500392083932659E-1
 8.010000000000000E9    -4.333129272128966E-1   -6.096473243731603E-1
 8.020000000000000E9    -6.932942701859675E-1   -2.720303068838510E-1
 8.030000000000000E9    -7.261021084818010E-1    1.583623527530566E-1
 8.040000000000000E9    -5.156093050594976E-1    5.378527047928829E-1
 8.050000000000000E9    -1.354806852839459E-1    7.385315773936043E-1
 8.060000000000000E9     2.858181223593104E-1    6.965799660238550E-1
 8.070000000000000E9     6.159283657435295E-1    4.349976204320032E-1
 8.080000000000000E9     7.553107330152234E-1    3.873419109074730E-2
 8.090000000000000E9     6.612167858357006E-1   -3.718676599289241E-1
 8.100000000000000E9     3.582561022747282E-1   -6.670992637078532E-1
 8.110000000000000E9    -6.483795681022253E-2   -7.511085585716506E-1
 8.120000000000000E9    -4.674694120905748E-1   -5.885212583240220E-1
 8.130000000000000E9    -7.131269053422392E-1   -2.311244639347973E-1
 8.140000000000000E9    -7.207509652201769E-1    1.999981583031879E-1
 8.150000000000000E9    -4.911674493616677E-1    5.623019990574204E-1
 8.160000000000000E9    -9.802473610472759E-2    7.458398544736758E-1
 8.170000000000000E9     3.263079355773403E-1    6.858850829491134E-1
 8.180000000000000E9     6.470020425093430E-1    4.035049317778303E-1
 8.190000000000000E9     7.595459748596609E-1   -1.109130735994754E-2
 8.200000000000000E9     6.244851413112414E-1   -4.238583893721054E-1
 8.210000000000000E9     2.874081918186703E-1   -6.958137637177217E-1
 8.220000000000000E9    -1.469509133339418E-1   -7.305458202510505E-1
 8.230000000000000E9    -5.298866299477833E-1   -5.110176426431370E-1
 8.240000000000000E9    -7.242543359098849E-1   -1.072229278971181E-1
 8.250000000000000E9    -6.539397263474129E-1    3.393511303858426E-1
 8.260000000000000E9    -3.415201441177136E-1    6.571673173120930E-1
 8.270000000000000E9     9.989305566385873E-2    7.355002280421139E-1
 8.280000000000000E9     5.041456412787496E-1    5.457703842584565E-1
 8.290000000000000E9     7.267843295045576E-1    1.611858672312413E-1
 8.300000000000000E9     6.895767732473673E-1   -2.835906362719922E-1
 8.310000000000000E9     3.927125615149683E-1   -6.285797826612832E-1
 8.320000000000000E9    -6.017330169593130E-2   -7.358322985474545E-1
 8.330000000000000E9    -4.934205455542042E-1   -5.442547922465453E-1
 8.340000000000000E9    -7.186697227408996E-1   -1.247610673198236E-1
 8.350000000000000E9    -6.392702545347647E-1    3.422864282567160E-1
 8.360000000000000E9    -2.917581910701949E-1    6.704547494803751E-1
 8.370000000000000E9     1.756568248398245E-1    7.186550834782969E-1
 8.380000000000000E9     5.731347358828790E-1    4.764547057130431E-1
 8.390000000000000E9     7.442820597231647E-1    4.314536798776605E-2
 8.400000000000000E9     6.197492472470716E-1   -4.095907931543029E-1
 8.410000000000000E9     2.488821525760441E-1   -6.963599296468077E-1
 8.420000000000000E9    -2.230985728117000E-1   -6.939477093459357E-1
 8.430000000000000E9    -5.966556683493528E-1   -4.000072577726819E-1
 8.440000000000000E9    -7.129601451910881E-1    6.317365039269972E-2
 8.450000000000000E9    -5.229042057609612E-1    4.998935866144206E-1
 8.460000000000000E9    -1.102883812408415E-1    7.198188373096528E-1
 8.470000000000000E9     3.487377758669348E-1    6.474550592546223E-1
 8.480000000000000E9     6.708618324132316E-1    3.187243084435765E-1
 8.490000000000000E9     7.358233658713026E-1   -1.324635119013341E-1
 8.500000000000000E9     5.236967650031468E-1   -5.336772643010090E-1
 8.510000000000000E9     1.129334335370387E-1   -7.347429819170420E-1
 8.520000000000000E9    -3.412866608866733E-1   -6.580571875963263E-1
 8.530000000000000E9    -6.639892015872211E-1   -3.242366170963817E-1
 8.540000000000000E9    -7.223072697405172E-1    1.355349939052672E-1
 8.550000000000000E9    -4.992340388629488E-1    5.346864041610065E-1
 8.560000000000000E9    -9.284397838934624E-2    7.346481820200303E-1
 8.570000000000000E9     3.446234100454654E-1    6.640592375577697E-1
 8.580000000000000E9     6.606484727428298E-1    3.595868664151374E-1
 8.590000000000000E9     7.486439082555962E-1   -7.140844662379248E-2
 8.600000000000000E9     5.760534373701162E-1   -4.784337920317873E-1
 8.610000000000000E9     2.081406328968408E-1   -7.145634022500098E-1
 8.620000000000000E9    -2.321289622192563E-1   -6.956687898771762E-1
 8.630000000000000E9    -5.844740425420856E-1   -4.262472552876018E-1
 8.640000000000000E9    -7.211580200361870E-1   -2.861912907726373E-3
 8.650000000000000E9    -5.923550880993608E-1    4.223887598143577E-1
 8.660000000000000E9    -2.390405921026864E-1    6.892029697369981E-1
 8.670000000000000E9     2.026472333033390E-1    7.067679351143903E-1
 8.680000000000000E9     5.737290913241598E-1    4.705111169495879E-1
 8.690000000000000E9     7.433224324559105E-1    6.855516648306959E-2
 8.700000000000000E9     6.563843302566211E-1   -3.557215451737119E-1
 8.710000000000000E9     3.405525329653893E-1   -6.575492308955893E-1
 8.720000000000000E9    -9.019576194089494E-2   -7.297494790862573E-1
 8.730000000000000E9    -4.885713159378134E-1   -5.442780320733455E-1
 8.740000000000000E9    -7.104938050653035E-1   -1.602527555747963E-1
 8.750000000000000E9    -6.683799982138482E-1    2.843797788406856E-1
 8.760000000000000E9    -3.799948973816521E-1    6.283462446273400E-1
 8.770000000000000E9     5.084361890821786E-2    7.384670988870271E-1
 8.780000000000000E9     4.624521042918909E-1    5.807584516558273E-1
 8.790000000000000E9     7.102158447219122E-1    2.160168559357646E-1
 8.800000000000000E9     7.057062501751944E-1   -2.290297558757858E-1
 8.810000000000000E9     4.512402330555921E-1   -5.888365480311201E-1
 8.820000000000000E9     2.931117862704623E-2   -7.348618605625605E-1
 8.830000000000000E9    -4.020013588614108E-1   -6.050098328104190E-1
 8.840000000000000E9    -6.771460501633765E-1   -2.481244565022612E-1
 8.850000000000000E9    -6.957971096277916E-1    1.996348240912972E-1
 8.860000000000000E9    -4.485665845511917E-1    5.689947614080306E-1
 8.870000000000000E9    -3.678701895251514E-2    7.280939588438545E-1
 8.880000000000000E9     3.888539654802443E-1    6.245261233226728E-1
 8.890000000000000E9     6.776735590813567E-1    3.004131357131998E-1
 8.900000000000000E9     7.321507415277210E-1   -1.263712961728678E-1
 8.910000000000000E9     5.332757122428980E-1   -5.136639100218271E-1
 8.920000000000000E9     1.506093121585328E-1   -7.213099759112954E-1
 8.930000000000000E9    -2.829805691984477E-1   -6.757732583780168E-1
 8.940000000000000E9    -6.143863899000825E-1   -3.908191571804622E-1
 8.950000000000000E9    -7.235174884086604E-1    3.253618231911282E-2
 8.960000000000000E9    -5.783307173312834E-1    4.435550873387522E-1
 8.970000000000000E9    -2.303651240950454E-1    6.964696871242588E-1
 8.980000000000000E9     1.947236603667717E-1    7.089212678621235E-1
 8.990000000000000E9     5.526456612144346E-1    4.843103152954196E-1
 9.000000000000000E9     7.290689618403066E-1    1.004133992271303E-1
 9.010000000000000E9     6.690088969348486E-1   -3.101093334795231E-1
 9.020000000000000E9     3.899296420586236E-1   -6.223046851756243E-1
 9.030000000000000E9    -2.169376984942439E-2   -7.285549193985019E-1
 9.040000000000000E9    -4.263855170296726E-1   -5.857988127827674E-1
 9.050000000000000E9    -6.827229859233765E-1   -2.428341231274791E-1
 9.060000000000000E9    -6.992160311311690E-1    1.822636516969006E-1
 9.070000000000000E9    -4.790239817362358E-1    5.429197156986898E-1
 9.080000000000000E9    -9.935808259329833E-2    7.233374819253657E-1
 9.090000000000000E9     3.162566978947691E-1    6.670490456298788E-1
 9.100000000000000E9     6.316270810601754E-1    3.923399311658060E-1
 9.110000000000000E9     7.444572521017865E-1   -1.337968463374726E-2
 9.120000000000000E9     6.167780518403930E-1   -4.165336894213336E-1
 9.130000000000000E9     2.881434164315620E-1   -6.844565153498362E-1
 9.140000000000000E9    -1.350782883322869E-1   -7.277292712109549E-1
 9.150000000000000E9    -5.137410740429217E-1   -5.287944933960481E-1
 9.160000000000000E9    -7.231931609049890E-1   -1.486893818866652E-1
 9.170000000000000E9    -6.880387211449960E-1    2.821557924839432E-1
 9.180000000000000E9    -4.195186605447507E-1    6.193882413030043E-1
 9.190000000000000E9    -8.354371836465209E-3    7.495740567092060E-1
 9.200000000000000E9     4.082415367945498E-1    6.296212272672532E-1
 9.210000000000000E9     6.902332071005424E-1    3.025108752566630E-1
 9.220000000000000E9     7.413219242968153E-1   -1.271470583829154E-1
 9.230000000000000E9     5.414701280320910E-1   -5.144779705464616E-1
 9.240000000000000E9     1.541796707211092E-1   -7.239835175427936E-1
 9.250000000000000E9    -2.870149476464161E-1   -6.765810801611598E-1
 9.260000000000000E9    -6.194952780350806E-1   -3.862740727364354E-1
 9.270000000000000E9    -7.247933891851861E-1    4.333276673031312E-2
 9.280000000000000E9    -5.655331855592821E-1    4.548468092477356E-1
 9.290000000000000E9    -2.008773138679251E-1    7.014223474701351E-1
 9.300000000000000E9     2.394827711356897E-1    6.947972543834966E-1
 9.310000000000000E9     5.955345754294517E-1    4.324254089383041E-1
 9.320000000000000E9     7.358848375510809E-1    7.617127394053127E-3
 9.330000000000000E9     5.990266460636838E-1   -4.216056851105922E-1
 9.340000000000000E9     2.343104650685118E-1   -6.869176485394638E-1
 9.350000000000000E9    -2.171065752089619E-1   -6.840546511402221E-1
 9.360000000000000E9    -5.845865453976576E-1   -4.071692306500053E-1
 9.370000000000000E9    -7.127477056660125E-1    3.189343620114365E-2
 9.380000000000000E9    -5.490554455753992E-1    4.560928733394194E-1
 9.390000000000000E9    -1.607292137367351E-1    6.915312175546978E-1
 9.400000000000000E9     2.919076475041248E-1    6.430217376823886E-1
 9.410000000000000E9     6.224147424915777E-1    3.376624684624320E-1
 9.420000000000000E9     6.988766704106921E-1   -1.052415124294425E-1
 9.430000000000000E9     4.899213969823141E-1   -5.044394307088913E-1
 9.440000000000000E9     7.955065360846046E-2   -6.950382038776900E-1
 9.450000000000000E9    -3.622773211697281E-1   -5.963990544631996E-1
 9.460000000000000E9    -6.493138207630310E-1   -2.510715319324143E-1
 9.470000000000000E9    -6.676457344746073E-1    1.954076159278994E-1
 9.480000000000000E9    -4.168555268291775E-1    5.591385534069999E-1
 9.490000000000000E9    -4.906321606285517E-3    7.011949898672155E-1
 9.500000000000000E9     4.073921317713774E-1    5.755648599868607E-1
 9.510000000000000E9     6.652215382810435E-1    2.299934507888971E-1
 9.520000000000000E9     6.772340900430719E-1   -2.012099976885658E-1
 9.530000000000000E9     4.377176764804560E-1   -5.587250582663250E-1
 9.540000000000000E9     3.738312553969245E-2   -7.094551157791794E-1
 9.550000000000000E9    -3.740823701611451E-1   -6.018970830216932E-1
 9.560000000000000E9    -6.529843334395169E-1   -2.806340958805963E-1
 9.570000000000000E9    -7.025061376747194E-1    1.359928759618609E-1
 9.580000000000000E9    -5.118532017923016E-1    5.061052769544687E-1
 9.590000000000000E9    -1.479843725105425E-1    7.057333101693942E-1
 9.600000000000000E9     2.642060419068916E-1    6.693915028634950E-1
 9.610000000000000E9     5.874589021502615E-1    4.200406330308156E-1
 9.620000000000000E9     7.207226314834969E-1    3.397070583743412E-2
 9.630000000000000E9     6.203680257541395E-1   -3.631522375089707E-1
 9.640000000000000E9     3.174327456411698E-1   -6.416840151708385E-1
 9.650000000000000E9    -8.956937838658781E-2   -7.086462544877329E-1
 9.660000000000000E9    -4.614295889356147E-1   -5.431931850934394E-1
 9.670000000000000E9    -6.821473783187952E-1   -2.024238585941230E-1
 9.680000000000000E9    -6.831143644927707E-1    2.004926912369139E-1
 9.690000000000000E9    -4.706721105408682E-1    5.371427534055701E-1
 9.700000000000000E9    -1.166496507712477E-1    7.079462620998562E-1
 9.710000000000000E9     2.733993329066102E-1    6.606775800524175E-1
 9.720000000000000E9     5.807299689457271E-1    4.170676488285545E-1
 9.730000000000000E9     7.151079209422284E-1    4.817666292740444E-2
 9.740000000000000E9     6.338070650236098E-1   -3.366503297049427E-1
 9.750000000000000E9     3.583818928905101E-1   -6.185006721390357E-1
 9.760000000000000E9    -3.211257950605570E-2   -7.107739473825896E-1
 9.770000000000000E9    -4.090194013657185E-1   -5.794817258431306E-1
 9.780000000000000E9    -6.545985129513114E-1   -2.696314286371292E-1
 9.790000000000000E9    -6.964474279823795E-1    1.208561114759514E-1
 9.800000000000000E9    -5.236800473517805E-1    4.730884297714621E-1
 9.810000000000000E9    -1.949772845622458E-1    6.827878224390690E-1
 9.820000000000000E9     1.951600755554949E-1    6.867010258270159E-1
 9.830000000000000E9     5.282835072497981E-1    4.819943194611828E-1
 9.840000000000000E9     7.020517028694141E-1    1.302663438464992E-1
 9.850000000000000E9     6.627928326044243E-1   -2.628837762328971E-1
 9.860000000000000E9     4.215826324548187E-1   -5.764255270138782E-1
 9.870000000000000E9     4.669037027751094E-2   -7.112926991308515E-1
 9.880000000000000E9    -3.444442332161633E-1   -6.213157392932545E-1
 9.890000000000000E9    -6.254074736574550E-1   -3.326130210725496E-1
 9.900000000000000E9    -7.053333956738875E-1    6.110456443141705E-2
 9.910000000000000E9    -5.584665152075781E-1    4.319398965615426E-1
 9.920000000000000E9    -2.339634946105957E-1    6.632273453270252E-1
 9.930000000000000E9     1.634915510428648E-1    6.834509323010636E-1
 9.940000000000000E9     5.099169969528203E-1    4.871520645310556E-1
 9.950000000000000E9     6.957799166584232E-1    1.339004446005589E-1
 9.960000000000000E9     6.534494327500158E-1   -2.698000996133688E-1
 9.970000000000000E9     3.934472732961516E-1   -5.877710731735024E-1
 9.980000000000000E9    -2.668069548934890E-3   -7.082672882452926E-1
 9.990000000000000E9    -3.998518784497663E-1   -5.850831279879767E-1
 1.000000000000000E+10  -6.589174281451829E-1   -2.580392763429769E-1
 1.001000000000000E+10  -6.884635580375512E-1    1.604614295880249E-1
 1.002000000000000E+10  -4.756413823362378E-1    5.249836842447991E-1
 1.003000000000000E+10  -9.036530046067395E-2    7.040562729450762E-1
 1.004000000000000E+10   3.312261998309884E-1    6.270432664637344E-1
 1.005000000000000E+10   6.321224113770333E-1    3.167731618119878E-1
 1.006000000000000E+10   7.009094778576177E-1   -1.112221327832485E-1
 1.007000000000000E+10   5.032379376894982E-1   -5.003757467322322E-1
 1.008000000000000E+10   1.098971191504965E-1   -7.001441486612480E-1
 1.009000000000000E+10  -3.312042413972824E-1   -6.263385529150303E-1
 1.010000000000000E+10  -6.429987702575973E-1   -2.994788696907906E-1
 1.011000000000000E+10  -6.943678533358814E-1    1.457062758703204E-1
 1.012000000000000E+10  -4.651752225641345E-1    5.337283178928872E-1
 1.013000000000000E+10  -4.872259284723361E-2    7.063144468681918E-1
 1.014000000000000E+10   3.873939017678955E-1    5.963760263172365E-1
 1.015000000000000E+10   6.711763699618201E-1    2.480520455628292E-1
 1.016000000000000E+10   6.857336635520941E-1   -2.057652051039862E-1
 1.017000000000000E+10   4.242810528248572E-1   -5.797128884416159E-1
 1.018000000000000E+10  -1.008106170010337E-2   -7.203135588552998E-1
 1.019000000000000E+10  -4.383068282756463E-1   -5.707387797262448E-1
 1.020000000000000E+10  -6.883073372763742E-1   -1.980513423432174E-1
 1.021000000000000E+10  -6.692226257873555E-1    2.493294909988279E-1
 1.022000000000000E+10  -3.962819394471848E-1    5.943895464742797E-1
 1.023000000000000E+10   2.175918913219632E-2    7.153970046404939E-1
 1.024000000000000E+10   4.311731486601052E-1    5.730756990510603E-1
 1.025000000000000E+10   6.839266559468917E-1    2.211494024060460E-1
 1.026000000000000E+10   6.917369390103504E-1   -2.099085783883660E-1
 1.027000000000000E+10   4.501996583628375E-1   -5.648427786342479E-1
 1.028000000000000E+10   5.100817158677827E-2   -7.174988707715323E-1
 1.029000000000000E+10  -3.636760150368640E-1   -6.179583272861698E-1
 1.030000000000000E+10  -6.495120481816065E-1   -3.024218487224121E-1
 1.031000000000000E+10  -7.045454565415010E-1    1.114770888984818E-1
 1.032000000000000E+10  -5.174085351379593E-1    4.848310224402088E-1
 1.033000000000000E+10  -1.558052461750156E-1    6.889689591155453E-1
 1.034000000000000E+10   2.538824969236398E-1    6.599582711828559E-1
 1.035000000000000E+10   5.776975325485897E-1    4.140516562298542E-1
 1.036000000000000E+10   7.099470361825878E-1    2.728739266530226E-2
 1.037000000000000E+10   6.101238275291659E-1   -3.691001130995909E-1
 1.038000000000000E+10   3.094215039491924E-1   -6.463806869548955E-1
 1.039000000000000E+10  -9.346985793530120E-2   -7.116285384579779E-1
 1.040000000000000E+10  -4.626001132167197E-1   -5.444257836577313E-1
 1.041000000000000E+10  -6.833998860778859E-1   -2.017858920765930E-1
 1.042000000000000E+10  -6.816019382739836E-1    2.001571993532403E-1
 1.043000000000000E+10  -4.659492999225439E-1    5.329600319327928E-1
 1.044000000000000E+10  -1.080565678836254E-1    6.967074110932895E-1
 1.045000000000000E+10   2.816293112852627E-1    6.431969221481818E-1
 1.046000000000000E+10   5.848683392297028E-1    3.942327206842960E-1
 1.047000000000000E+10   7.063821055710610E-1    1.969616480388342E-2
 1.048000000000000E+10   6.045032686679086E-1   -3.627529217025571E-1
 1.049000000000000E+10   3.100141255958446E-1   -6.298280427534635E-1
 1.050000000000000E+10  -8.411498482592451E-2   -6.958336063682625E-1
 1.051000000000000E+10  -4.444552357535677E-1   -5.386785644579328E-1
 1.052000000000000E+10  -6.617287189394681E-1   -2.106445789790915E-1
 1.053000000000000E+10  -6.668424517332151E-1    1.835864714402484E-1
 1.054000000000000E+10  -4.587954574492190E-1    5.171020740444435E-1
 1.055000000000000E+10  -1.081219696613996E-1    6.848486647323592E-1
 1.056000000000000E+10   2.736582746552917E-1    6.347985450830249E-1
 1.057000000000000E+10   5.691509813805401E-1    3.902698128840859E-1
 1.058000000000000E+10   6.911009495982751E-1    2.679666600970260E-2
 1.059000000000000E+10   6.009937641569610E-1   -3.484529210874288E-1
 1.060000000000000E+10   3.194347350237014E-1   -6.178109546088394E-1
 1.061000000000000E+10  -7.185551967036832E-2   -6.897574860553650E-1
 1.062000000000000E+10  -4.412817668415693E-1   -5.332003049565905E-1
 1.063000000000000E+10  -6.612575875878483E-1   -1.978053832526492E-1
 1.064000000000000E+10  -6.577064949097509E-1    2.001859463832787E-1
 1.065000000000000E+10  -4.370019833689972E-1    5.272240414716591E-1
 1.066000000000000E+10  -7.515312861333870E-2    6.833453481241035E-1
 1.067000000000000E+10   3.090637869246738E-1    6.197549501065542E-1
 1.068000000000000E+10   5.969523604623219E-1    3.587895332548815E-1
 1.069000000000000E+10   6.971007853335075E-1   -1.859057608962822E-2
 1.070000000000000E+10   5.742878551147793E-1   -3.930537527250069E-1
 1.071000000000000E+10   2.684710536603760E-1   -6.426191804792488E-1
 1.072000000000000E+10  -1.281882214221176E-1   -6.786122888561383E-1
 1.073000000000000E+10  -4.809609178284974E-1   -4.836167809322097E-1
 1.074000000000000E+10  -6.650930341109437E-1   -1.195049456398800E-1
 1.075000000000000E+10  -6.105712764689142E-1    2.873058025189407E-1
 1.076000000000000E+10  -3.354924689101116E-1    5.848026742996880E-1
 1.077000000000000E+10   6.118642683530296E-2    6.717672302272050E-1
 1.078000000000000E+10   4.346869043936800E-1    5.193466261460664E-1
 1.079000000000000E+10   6.564622889921591E-1    1.874633772273931E-1
 1.080000000000000E+10   6.559814004236568E-1   -2.097022673945795E-1
 1.081000000000000E+10   4.269506116226809E-1   -5.399313788460051E-1
 1.082000000000000E+10   4.892780895498618E-2   -6.872444164172039E-1
 1.083000000000000E+10  -3.497156265122510E-1   -5.928884106299581E-1
 1.084000000000000E+10  -6.222215446085539E-1   -2.850322455256744E-1
 1.085000000000000E+10  -6.670778197085651E-1    1.222829866130269E-1
 1.086000000000000E+10  -4.701393209683601E-1    4.870865751933263E-1
 1.087000000000000E+10  -1.040556906157660E-1    6.717652635700213E-1
 1.088000000000000E+10   2.993860455808033E-1    6.157185395899829E-1
 1.089000000000000E+10   5.996329844092675E-1    3.392801508213767E-1
 1.090000000000000E+10   6.891936789553259E-1   -6.171427714153719E-2
 1.091000000000000E+10   5.401839706341401E-1   -4.428771411543121E-1
 1.092000000000000E+10   1.957804846294295E-1   -6.695010810532450E-1
 1.093000000000000E+10  -2.202611694995857E-1   -6.551986546813220E-1
 1.094000000000000E+10  -5.557652702690267E-1   -4.016698021138220E-1
 1.095000000000000E+10  -6.860003027422880E-1    1.426030972787736E-3
 1.096000000000000E+10  -5.578145082865773E-1    3.981222874176082E-1
 1.097000000000000E+10  -2.232543516444702E-1    6.499447057760948E-1
 1.098000000000000E+10   1.952065941692682E-1    6.641678474140371E-1
 1.099000000000000E+10   5.447215747439602E-1    4.392109827360096E-1
 1.100000000000000E+10   7.043629723983479E-1    5.989518164175899E-2
 1.101000000000000E+10   6.180728562857716E-1   -3.455379058705215E-1
 1.102000000000000E+10   3.204048710344676E-1   -6.338127110848070E-1
 1.103000000000000E+10  -9.023381363233558E-2   -7.067296866437259E-1
 1.104000000000000E+10  -4.728384736241582E-1   -5.323069707167575E-1
 1.105000000000000E+10  -6.863195654247413E-1   -1.690123112432037E-1
 1.106000000000000E+10  -6.575145010543072E-1    2.571944849870835E-1
 1.107000000000000E+10  -3.948602438166366E-1    5.857009828487243E-1
 1.108000000000000E+10  -8.186255579997743E-4    7.078300373827112E-1
 1.109000000000000E+10   3.903089032568348E-1    5.934375150303856E-1
 1.110000000000000E+10   6.546543890215716E-1    2.837281337653300E-1
 1.111000000000000E+10   7.109075856327561E-1   -1.158649604069244E-1
 1.112000000000000E+10   5.372656056381500E-1   -4.815654480426714E-1
 1.113000000000000E+10   1.862791711376053E-1   -6.924665395293151E-1
 1.114000000000000E+10  -2.281104372068039E-1   -6.741965652884616E-1
 1.115000000000000E+10  -5.675975714743350E-1   -4.283901886397082E-1
 1.116000000000000E+10  -7.055215411699913E-1   -3.922125936065682E-2
 1.117000000000000E+10  -6.031826503776589E-1    3.613679756008431E-1
 1.118000000000000E+10  -2.961563921466457E-1    6.379267361125247E-1
 1.119000000000000E+10   1.102676557753955E-1    6.983016405491371E-1
 1.120000000000000E+10   4.782531151531695E-1    5.268504050891912E-1
 1.121000000000000E+10   6.883678923537775E-1    1.814593926100649E-1
 1.122000000000000E+10   6.758654853104037E-1   -2.230237141881906E-1
 1.123000000000000E+10   4.436853870463234E-1   -5.561104178241913E-1
 1.124000000000000E+10   6.323196968511750E-2   -7.070132732295525E-1
 1.125000000000000E+10  -3.402210956454459E-1   -6.173444094746877E-1
 1.126000000000000E+10  -6.305626879576652E-1   -3.105838920433842E-1
 1.127000000000000E+10  -6.950175135389244E-1    1.079876100902614E-1
 1.128000000000000E+10  -5.104781213726134E-1    4.840131816436687E-1
 1.129000000000000E+10  -1.528604510039599E-1    6.859566589586058E-1
 1.130000000000000E+10   2.499981092550121E-1    6.568719306269405E-1
 1.131000000000000E+10   5.727657369781158E-1    4.182276238935019E-1
 1.132000000000000E+10   7.113198067326394E-1    4.638124637573617E-2
 1.133000000000000E+10   6.212844668435168E-1   -3.434492929612311E-1
 1.134000000000000E+10   3.244739777412874E-1   -6.224753092980727E-1
 1.135000000000000E+10  -8.328945546084304E-2   -6.902848674423699E-1
 1.136000000000000E+10  -4.540878212967798E-1   -5.171680453443632E-1
 1.137000000000000E+10  -6.604622943223319E-1   -1.622729537225854E-1
 1.138000000000000E+10  -6.293394294694896E-1    2.459232185143751E-1
 1.139000000000000E+10  -3.758960701999886E-1    5.638144960623424E-1
 1.140000000000000E+10   7.492874939975681E-3    6.845596246441817E-1
 1.141000000000000E+10   3.859231803174558E-1    5.708531837694335E-1
 1.142000000000000E+10   6.392149989758975E-1    2.682490658683429E-1
 1.143000000000000E+10   6.845698618685898E-1   -1.229595729834030E-1
 1.144000000000000E+10   5.075062216698248E-1   -4.742280827941767E-1
 1.145000000000000E+10   1.646214617258279E-1   -6.694831755473102E-1
 1.146000000000000E+10  -2.375166586664654E-1   -6.384854291437796E-1
 1.147000000000000E+10  -5.553426145211356E-1   -3.874266520620386E-1
 1.148000000000000E+10  -6.755853063233024E-1   -6.869168369204166E-4
 1.149000000000000E+10  -5.546241431268415E-1    3.830335837515206E-1
 1.150000000000000E+10  -2.405925110039064E-1    6.274824499186828E-1
 1.151000000000000E+10   1.573307534156645E-1    6.606364587437668E-1
 1.152000000000000E+10   4.973558399517266E-1    4.718285169796057E-1
 1.153000000000000E+10   6.753245297906996E-1    1.310645254989555E-1
 1.154000000000000E+10   6.367473362972708E-1   -2.546878889224168E-1
 1.155000000000000E+10   3.874911509608429E-1   -5.620114484179930E-1
 1.156000000000000E+10   1.235358926995838E-2   -6.805493307450965E-1
 1.157000000000000E+10  -3.684493641652308E-1   -5.652749670188087E-1
 1.158000000000000E+10  -6.186300702103853E-1   -2.539869405686773E-1
 1.159000000000000E+10  -6.520829966114999E-1    1.434907617830873E-1
 1.160000000000000E+10  -4.602202717555570E-1    4.923156113660165E-1
 1.161000000000000E+10  -1.111332749321166E-1    6.674038777503090E-1
 1.162000000000000E+10   2.743543054416823E-1    6.237374473710809E-1
 1.163000000000000E+10   5.724869875770435E-1    3.794999736476418E-1
 1.164000000000000E+10   6.907875258458693E-1    1.509046093717880E-2
 1.165000000000000E+10   5.943599429564802E-1   -3.543306268752520E-1
 1.166000000000000E+10   3.063113223998831E-1   -6.136430386059064E-1
 1.167000000000000E+10  -7.931233497006082E-2   -6.785511891534970E-1
 1.168000000000000E+10  -4.410352799129986E-1   -5.226100261254217E-1
 1.169000000000000E+10  -6.573334112901801E-1   -1.904318326466984E-1
 1.170000000000000E+10  -6.493675750694045E-1    2.077072363400830E-1
 1.171000000000000E+10  -4.233136188871094E-1    5.428521768044389E-1
 1.172000000000000E+10  -5.360900460533760E-2    6.951552065079311E-1
 1.173000000000000E+10   3.328662382898644E-1    6.179612340428832E-1
 1.174000000000000E+10   6.104986183673643E-1    3.431297372118883E-1
 1.175000000000000E+10   6.941343035505139E-1   -3.966919684543023E-2
 1.176000000000000E+10   5.654261474850607E-1   -4.058259768595962E-1
 1.177000000000000E+10   2.549022291746267E-1   -6.461217537256952E-1
 1.178000000000000E+10  -1.430062417627963E-1   -6.752789532690830E-1
 1.179000000000000E+10  -4.933507906649657E-1   -4.753137195284625E-1
 1.180000000000000E+10  -6.738294805213970E-1   -1.138779291317423E-1
 1.181000000000000E+10  -6.217220905830564E-1    2.821688937304689E-1
 1.182000000000000E+10  -3.626626145104525E-1    5.805463024031223E-1
 1.183000000000000E+10   1.321330195215204E-2    6.898425321752516E-1
 1.184000000000000E+10   3.863223302333593E-1    5.804072157364298E-1
 1.185000000000000E+10   6.403179649931128E-1    2.895077584974678E-1
 1.186000000000000E+10   6.931224070329896E-1   -9.410286155146638E-2
 1.187000000000000E+10   5.309093803230851E-1   -4.495387832618672E-1
 1.188000000000000E+10   2.000219191508125E-1   -6.630906213096076E-1
 1.189000000000000E+10  -1.968020308026721E-1   -6.608111845938387E-1
 1.190000000000000E+10  -5.283102882060425E-1   -4.351959572838547E-1
 1.191000000000000E+10  -6.776805649541870E-1   -5.304345763519886E-2
 1.192000000000000E+10  -5.874593153156094E-1    3.469319461290581E-1
 1.193000000000000E+10  -2.887017281039784E-1    6.236568950000023E-1
 1.194000000000000E+10   1.102789767673220E-1    6.815890621117352E-1
 1.195000000000000E+10   4.709953696715320E-1    5.059375565434094E-1
 1.196000000000000E+10   6.769367727025541E-1    1.633800315864229E-1
 1.197000000000000E+10   6.583030352911597E-1   -2.354909931944046E-1
 1.198000000000000E+10   4.188700440298359E-1   -5.593026783840283E-1
 1.199000000000000E+10   3.305030041220147E-2   -6.949326330237457E-1
 1.200000000000000E+10  -3.674958735978631E-1   -5.864618393054677E-1
 1.201000000000000E+10  -6.347997264996510E-1   -2.716043890173274E-1
 1.202000000000000E+10  -6.723094908016478E-1    1.408894149440616E-1
 1.203000000000000E+10  -4.690639978955596E-1    4.996399679637706E-1
 1.204000000000000E+10  -1.009999072789419E-1    6.804577170249595E-1
 1.205000000000000E+10   3.034850159999906E-1    6.235735868810677E-1
 1.206000000000000E+10   5.997595897818462E-1    3.482184312257195E-1
 1.207000000000000E+10   6.918750987213146E-1   -5.130423878558178E-2
 1.208000000000000E+10   5.406260802311872E-1   -4.358424277568387E-1
 1.209000000000000E+10   1.973886224581196E-1   -6.655305053648235E-1
 1.210000000000000E+10  -2.143141333859720E-1   -6.570838162154118E-1
 1.211000000000000E+10  -5.523341080616064E-1   -4.071989538882717E-1
 1.212000000000000E+10  -6.873100605669834E-1   -1.173047450084173E-2
 1.213000000000000E+10  -5.733269171471636E-1    3.862998609134171E-1
 1.214000000000000E+10  -2.547120907134728E-1    6.443077334923262E-1
 1.215000000000000E+10   1.506450070821246E-1    6.730345663266061E-1
 1.216000000000000E+10   5.040401548695300E-1    4.740452491469855E-1
 1.217000000000000E+10   6.810737827179558E-1    1.143767971099120E-1
 1.218000000000000E+10   6.259554616646287E-1   -2.793325557141418E-1
 1.219000000000000E+10   3.602682181211035E-1   -5.741951479282845E-1
 1.220000000000000E+10  -2.624977237981688E-2   -6.697994404637040E-1
 1.221000000000000E+10  -3.969345472852698E-1   -5.339275098326891E-1
 1.222000000000000E+10  -6.257485714121642E-1   -2.105791424867157E-1
 1.223000000000000E+10  -6.303042946048169E-1    1.854319294141599E-1
 1.224000000000000E+10  -4.114312905384378E-1    5.128407177722611E-1
 1.225000000000000E+10  -4.966135346667159E-2    6.597900139015215E-1
 1.226000000000000E+10   3.256443643020138E-1    5.729246752454762E-1
 1.227000000000000E+10   5.883868841175973E-1    2.935045434711163E-1
 1.228000000000000E+10   6.527643570088170E-1   -8.270412065178798E-2
 1.229000000000000E+10   4.994504174260010E-1   -4.291694783180307E-1
 1.230000000000000E+10   1.826636436566689E-1   -6.306137041229483E-1
 1.231000000000000E+10  -1.969894904229261E-1   -6.191908416083859E-1
 1.232000000000000E+10  -5.055859382929222E-1   -4.031394221139453E-1
 1.233000000000000E+10  -6.446681562022898E-1   -5.625695533036634E-2
 1.234000000000000E+10  -5.697844060564674E-1    3.092487476846655E-1
 1.235000000000000E+10  -3.022876980226483E-1    5.717744326357109E-1
 1.236000000000000E+10   6.762621546779199E-2    6.466381727998050E-1
 1.237000000000000E+10   4.165261891360879E-1    5.027644101595321E-1
 1.238000000000000E+10   6.249110930997419E-1    1.893489124832579E-1
 1.239000000000000E+10   6.238952158324973E-1   -1.860605473588260E-1
 1.240000000000000E+10   4.155193556592670E-1   -4.990817742633348E-1
 1.241000000000000E+10   7.382164766142486E-2   -6.467389077323691E-1
 1.242000000000000E+10  -2.925288199066655E-1   -5.817845026776435E-1
 1.243000000000000E+10  -5.633753913019531E-1   -3.260744256803887E-1
 1.244000000000000E+10  -6.503590664672259E-1    3.594280023286200E-2
 1.245000000000000E+10  -5.272248664553114E-1    3.862104777970091E-1
 1.246000000000000E+10  -2.370683154715737E-1    6.073172509686448E-1
 1.247000000000000E+10   1.284468484247646E-1    6.352031754427802E-1
 1.248000000000000E+10   4.531823119855845E-1    4.615887091606629E-1
 1.249000000000000E+10   6.344057086281008E-1    1.399834983595024E-1
 1.250000000000000E+10   6.121209420500737E-1   -2.281460435386516E-1
