#  HZ   S   RI   R     50.00 
! Rohde & Schwarz Vector Network Analyzer 
! Rohde-Schwarz,ZNA43-4Port,1332450044101932,2.92
! Created: UTC 6/9/2026, 6:30:11 AM
! freq[Hz]                re:S11                  im:S11
 8.000000000000000E9     1.184923391073813E-1    7.122476964230179E-1
 8.010000000000000E9     5.670975984650460E-1    4.522618258357837E-1
 8.020000000000000E9     7.278574305358408E-1   -3.624186297093826E-2
 8.030000000000000E9     5.274723502296167E-1   -5.026793108150166E-1
 8.040000000000000E9     7.053617990070341E-2   -7.203052578444832E-1
 8.050000000000000E9    -4.195743265127595E-1   -5.808202426791431E-1
 8.060000000000000E9    -7.011502210460209E-1   -1.664391051676902E-1
 8.070000000000000E9    -6.450353721227277E-1    3.269270130196017E-1
 8.080000000000000E9    -2.920334950308487E-1    6.629362799780720E-1
 8.090000000000000E9     1.823732373997017E-1    7.045942806499323E-1
 8.100000000000000E9     5.771646394930721E-1    4.548408400428141E-1
 8.110000000000000E9     7.366596353511538E-1    2.675294693628896E-2
 8.120000000000000E9     6.122281088516158E-1   -4.108570052543136E-1
 8.130000000000000E9     2.551662486061206E-1   -6.907711504052536E-1
 8.140000000000000E9    -1.951295972448728E-1   -7.084230102016050E-1
 8.150000000000000E9    -5.673486736584774E-1   -4.636644393449604E-1
 8.160000000000000E9    -7.256925747789388E-1   -4.176573696431789E-2
 8.170000000000000E9    -6.180801153010456E-1    3.880770966894501E-1
 8.180000000000000E9    -2.931802367424624E-1    6.772281283169685E-1
 8.190000000000000E9     1.318572289368539E-1    7.330721460073096E-1
 8.200000000000000E9     5.121161687326851E-1    5.427259033576947E-1
 8.210000000000000E9     7.309491184955248E-1    1.739731906388492E-1
 8.220000000000000E9     7.115162964309631E-1   -2.501725391393363E-1
 8.230000000000000E9     4.623082319899665E-1   -5.919355936699021E-1
 8.240000000000000E9     6.346182903919445E-2   -7.405561007319422E-1
 8.250000000000000E9    -3.576492604531626E-1   -6.435326269494018E-1
 8.260000000000000E9    -6.545613495527617E-1   -3.392842258279442E-1
 8.270000000000000E9    -7.345245053625197E-1    8.247171555968130E-2
 8.280000000000000E9    -5.642722283437930E-1    4.788497619284577E-1
 8.290000000000000E9    -2.046821474936047E-1    7.122072325826400E-1
 8.300000000000000E9     2.180005887191848E-1    7.119498602459476E-1
 8.310000000000000E9     5.655641858379021E-1    4.864872422586953E-1
 8.320000000000000E9     7.380473086378199E-1    1.112686582647607E-1
 8.330000000000000E9     6.835656129048773E-1   -3.009858212087884E-1
 8.340000000000000E9     4.116625286636809E-1   -6.222210903510940E-1
 8.350000000000000E9     4.700058042827372E-3   -7.416363313982201E-1
 8.360000000000000E9    -4.063383496911420E-1   -6.091680033965853E-1
 8.370000000000000E9    -6.758535035317722E-1   -2.676016154822583E-1
 8.380000000000000E9    -7.087635722575418E-1    1.643393151611348E-1
 8.390000000000000E9    -4.972582425039871E-1    5.373598473132212E-1
 8.400000000000000E9    -1.171337214165146E-1    7.270586502721552E-1
 8.410000000000000E9     3.087857164694685E-1    6.748330918790063E-1
 8.420000000000000E9     6.345938431241204E-1    4.008252522476118E-1
 8.430000000000000E9     7.551648186622256E-1   -5.784710513628276E-3
 8.440000000000000E9     6.297414319290979E-1   -4.118892102644458E-1
 8.450000000000000E9     2.959868050512545E-1   -6.826167444531701E-1
 8.460000000000000E9    -1.340501564264570E-1   -7.252338727425139E-1
 8.470000000000000E9    -5.155062142232342E-1   -5.171803164353003E-1
 8.480000000000000E9    -7.127579600517795E-1   -1.257798318537527E-1
 8.490000000000000E9    -6.495556969348656E-1    3.111287941010215E-1
 8.500000000000000E9    -3.468921306264697E-1    6.326914828648273E-1
 8.510000000000000E9     7.724249150810664E-2    7.226408368996398E-1
 8.520000000000000E9     4.732276666816234E-1    5.539741962934186E-1
 8.530000000000000E9     7.033459463889226E-1    1.940231457456067E-1
 8.540000000000000E9     6.924278639717667E-1   -2.332956373289049E-1
 8.550000000000000E9     4.392996041692858E-1   -5.823494623201689E-1
 8.560000000000000E9     2.729716909815547E-2   -7.198944884683554E-1
 8.570000000000000E9    -3.957489705189332E-1   -5.918482762194167E-1
 8.580000000000000E9    -6.650239879295188E-1   -2.399122020345907E-1
 8.590000000000000E9    -6.775634547010367E-1    1.985610649774742E-1
 8.600000000000000E9    -4.352036318312654E-1    5.580313555191756E-1
 8.610000000000000E9    -2.411001180411229E-2    7.124101628127149E-1
 8.620000000000000E9     3.952949157934434E-1    6.051341310378306E-1
 8.630000000000000E9     6.742063696834889E-1    2.801494181705975E-1
 8.640000000000000E9     7.153713976192675E-1   -1.438204411851287E-1
 8.650000000000000E9     5.063327770066856E-1   -5.154869852742692E-1
 8.660000000000000E9     1.245232200032438E-1   -7.068678887205074E-1
 8.670000000000000E9    -2.974932167341965E-1   -6.453361277376499E-1
 8.680000000000000E9    -6.096979079643526E-1   -3.522712398618507E-1
 8.690000000000000E9    -6.981086875829275E-1    7.047042848261204E-2
 8.700000000000000E9    -5.256733024575256E-1    4.700002429954668E-1
 8.710000000000000E9    -1.593534344978174E-1    6.937332992779516E-1
 8.720000000000000E9     2.690602726455277E-1    6.652167040586705E-1
 8.730000000000000E9     6.025525939241975E-1    3.979426054903216E-1
 8.740000000000000E9     7.256441731931632E-1   -8.669887814198498E-3
 8.750000000000000E9     5.992548648728530E-1   -4.132528506702190E-1
 8.760000000000000E9     2.650460393490919E-1   -6.712066933611940E-1
 8.770000000000000E9    -1.622355115737276E-1   -6.993195678731466E-1
 8.780000000000000E9    -5.346853122131795E-1   -4.786132391393014E-1
 8.790000000000000E9    -7.139740339688434E-1   -8.445785994310900E-2
 8.800000000000000E9    -6.358730046034882E-1    3.376414617070074E-1
 8.810000000000000E9    -3.282207085758897E-1    6.439957304887649E-1
 8.820000000000000E9     9.330747647874447E-2    7.246653482974691E-1
 8.830000000000000E9     4.853187500242888E-1    5.576470068052455E-1
 8.840000000000000E9     7.158831529677242E-1    1.993038619218234E-1
 8.850000000000000E9     7.029642789433962E-1   -2.284926102268453E-1
 8.860000000000000E9     4.546716433928090E-1   -5.815923140669602E-1
 8.870000000000000E9     4.760630981551071E-2   -7.316865367919199E-1
 8.880000000000000E9    -3.745262737448382E-1   -6.216038576249463E-1
 8.890000000000000E9    -6.592228594689946E-1   -2.871527116856710E-1
 8.900000000000000E9    -6.999253031714301E-1    1.528839683018081E-1
 8.910000000000000E9    -4.823934871172023E-1    5.306589923892275E-1
 8.920000000000000E9    -8.841601585131013E-2    7.135650616347380E-1
 8.930000000000000E9     3.372711443150125E-1    6.378871975027137E-1
 8.940000000000000E9     6.423603424631121E-1    3.346596968990736E-1
 8.950000000000000E9     7.212785249276670E-1   -8.713876568278692E-2
 8.960000000000000E9     5.392027425108583E-1   -4.753292517727961E-1
 8.970000000000000E9     1.643441075969405E-1   -6.924066428091433E-1
 8.980000000000000E9    -2.706981127848695E-1   -6.543677937122694E-1
 8.990000000000000E9    -6.028397611997642E-1   -3.689137482848773E-1
 9.000000000000000E9    -7.018579099919835E-1    5.629201547615824E-2
 9.010000000000000E9    -5.297693052315094E-1    4.628848551684321E-1
 9.020000000000000E9    -1.579401431440176E-1    6.897870094733309E-1
 9.030000000000000E9     2.698429524435201E-1    6.599540956717433E-1
 9.040000000000000E9     5.996043914096399E-1    3.902648718321571E-1
 9.050000000000000E9     7.125047657534828E-1   -2.285623531825040E-2
 9.060000000000000E9     5.712369263852280E-1   -4.290474311629422E-1
 9.070000000000000E9     2.161429933205618E-1   -6.777916325806622E-1
 9.080000000000000E9    -2.191740637253825E-1   -6.696265705758355E-1
 9.090000000000000E9    -5.673831428505117E-1   -4.072864936879508E-1
 9.100000000000000E9    -6.978592688420936E-1    9.566672140973724E-3
 9.110000000000000E9    -5.613740520067378E-1    4.195772377044693E-1
 9.120000000000000E9    -2.126227824220426E-1    6.722104839943941E-1
 9.130000000000000E9     2.170156118821138E-1    6.758816148286027E-1
 9.140000000000000E9     5.689924225230407E-1    4.321237016664367E-1
 9.150000000000000E9     7.173675266568805E-1    3.257563441827506E-2
 9.160000000000000E9     6.053584435478528E-1   -3.768712830183794E-1
 9.170000000000000E9     2.787544152065719E-1   -6.508739788171559E-1
 9.180000000000000E9    -1.457142782945253E-1   -6.916736084411135E-1
 9.190000000000000E9    -5.165341826215826E-1   -4.848330429243798E-1
 9.200000000000000E9    -7.011594673068415E-1   -1.057239568368110E-1
 9.210000000000000E9    -6.384139016775088E-1    3.146991715295091E-1
 9.220000000000000E9    -3.527071283103175E-1    6.253700509231248E-1
 9.230000000000000E9     5.392842292820119E-2    7.226840231229819E-1
 9.240000000000000E9     4.432995479654417E-1    5.788359306388616E-1
 9.250000000000000E9     6.876060342486654E-1    2.440737609922695E-1
 9.260000000000000E9     7.107311096687929E-1   -1.707098641798100E-1
 9.270000000000000E9     5.013852107460761E-1   -5.300494176384194E-1
 9.280000000000000E9     1.271229906626082E-1   -7.136061427832674E-1
 9.290000000000000E9    -2.861353644688184E-1   -6.589860428140824E-1
 9.300000000000000E9    -6.004195145512637E-1   -3.867935839388700E-1
 9.310000000000000E9    -7.124358884068795E-1    7.190093494147493E-3
 9.320000000000000E9    -5.934743467383503E-1    3.950228788914008E-1
 9.330000000000000E9    -2.850715329410236E-1    6.570895243206180E-1
 9.340000000000000E9     1.165192746352783E-1    7.118527099929564E-1
 9.350000000000000E9     4.836954593907412E-1    5.412189558298481E-1
 9.360000000000000E9     6.963100355856978E-1    2.054273849624509E-1
 9.370000000000000E9     6.950042743751687E-1   -1.957587076887923E-1
 9.380000000000000E9     4.795681346289028E-1   -5.370904684007456E-1
 9.390000000000000E9     1.160563986383980E-1   -7.124647734642874E-1
 9.400000000000000E9    -2.829783251071137E-1   -6.657880217984079E-1
 9.410000000000000E9    -5.956464525695909E-1   -4.066031922151535E-1
 9.420000000000000E9    -7.212941153201706E-1   -2.018722763768922E-2
 9.430000000000000E9    -6.208166027283426E-1    3.720129735374434E-1
 9.440000000000000E9    -3.285791071734400E-1    6.477938698883541E-1
 9.450000000000000E9     6.242417048082039E-2    7.253812087535200E-1
 9.460000000000000E9     4.391317520389005E-1    5.831453947934000E-1
 9.470000000000000E9     6.827140837034552E-1    2.646115118271741E-1
 9.480000000000000E9     7.209833898290594E-1   -1.349688960994700E-1
 9.490000000000000E9     5.396957615356451E-1   -4.960457637670515E-1
 9.500000000000000E9     1.906134566043516E-1   -7.058360311534320E-1
 9.510000000000000E9    -2.212609112725149E-1   -6.996804736068607E-1
 9.520000000000000E9    -5.627412580729044E-1   -4.715405360092477E-1
 9.530000000000000E9    -7.259632697183227E-1   -9.637439427469845E-2
 9.540000000000000E9    -6.631869354528483E-1    3.081712470028117E-1
 9.550000000000000E9    -3.936281057788464E-1    6.195035903739030E-1
 9.560000000000000E9    -5.639973561201455E-3    7.372389202020292E-1
 9.570000000000000E9     3.883422106681573E-1    6.268822682315777E-1
 9.580000000000000E9     6.625799816169101E-1    3.176318005336128E-1
 9.590000000000000E9     7.257845099755840E-1   -9.396810800178718E-2
 9.600000000000000E9     5.551211130591861E-1   -4.762733693021768E-1
 9.610000000000000E9     1.999627076878918E-1   -7.002813078875154E-1
 9.620000000000000E9    -2.236563591876919E-1   -6.902848559838126E-1
 9.630000000000000E9    -5.721111394075464E-1   -4.451296985356066E-1
 9.640000000000000E9    -7.240519105738134E-1   -4.724402880778633E-2
 9.650000000000000E9    -6.278740010551035E-1    3.649293989867522E-1
 9.660000000000000E9    -3.159606157270899E-1    6.544295017291918E-1
 9.670000000000000E9     1.040132564240549E-1    7.203351954238809E-1
 9.680000000000000E9     4.888101224606112E-1    5.397339141447790E-1
 9.690000000000000E9     7.055165762673733E-1    1.717658216601629E-1
 9.700000000000000E9     6.726189425340733E-1   -2.582866658697516E-1
 9.710000000000000E9     3.946420276238198E-1   -5.995229530079030E-1
 9.720000000000000E9    -3.269465431381224E-2   -7.139783562953630E-1
 9.730000000000000E9    -4.453094626837980E-1   -5.518543136156019E-1
 9.740000000000000E9    -6.801626415478084E-1   -1.762179046011047E-1
 9.750000000000000E9    -6.473525578621555E-1    2.651280717516019E-1
 9.760000000000000E9    -3.646814113764127E-1    5.961029170596954E-1
 9.770000000000000E9     5.734693755037067E-2    6.956090909851402E-1
 9.780000000000000E9     4.585968439090896E-1    5.250657660118743E-1
 9.790000000000000E9     6.812482622021245E-1    1.461615608143309E-1
 9.800000000000000E9     6.326140503215429E-1   -2.927307705467305E-1
 9.810000000000000E9     3.261922294307327E-1   -6.099350730900134E-1
 9.820000000000000E9    -1.101899126391104E-1   -6.770841513786613E-1
 9.830000000000000E9    -4.978634197951431E-1   -4.678314752404082E-1
 9.840000000000000E9    -6.794493774642254E-1   -6.919975822667246E-2
 9.850000000000000E9    -5.839578770149446E-1    3.531467668133092E-1
 9.860000000000000E9    -2.566565435882608E-1    6.332029283503240E-1
 9.870000000000000E9     1.688037317711739E-1    6.648483380387866E-1
 9.880000000000000E9     5.278645640118861E-1    4.422134550044217E-1
 9.890000000000000E9     6.873737794323906E-1    5.379243149832403E-2
 9.900000000000000E9     5.897310514832775E-1   -3.541856166129694E-1
 9.910000000000000E9     2.741428403211366E-1   -6.336277248624811E-1
 9.920000000000000E9    -1.430246869982472E-1   -6.772011365916487E-1
 9.930000000000000E9    -5.055271978957231E-1   -4.710159723073449E-1
 9.940000000000000E9    -6.812977821579209E-1   -9.633362717209160E-2
 9.950000000000000E9    -6.140646054251934E-1    3.084838540442388E-1
 9.960000000000000E9    -3.361041161342143E-1    5.991417401138963E-1
 9.970000000000000E9     5.210492787788337E-2    6.841003480872557E-1
 9.980000000000000E9     4.208943065746447E-1    5.415019913509946E-1
 9.990000000000000E9     6.509675468898918E-1    2.203364385861806E-1
 1.000000000000000E+10   6.678812042568587E-1   -1.738040467078994E-1
 1.001000000000000E+10   4.664055927396478E-1   -5.065073800046048E-1
 1.002000000000000E+10   1.139009915753292E-1   -6.769155494550092E-1
 1.003000000000000E+10  -2.731748604226739E-1   -6.289172197416159E-1
 1.004000000000000E+10  -5.718101684611279E-1   -3.805369253152931E-1
 1.005000000000000E+10  -6.880478061297566E-1   -1.140873457086823E-2
 1.006000000000000E+10  -5.853129773219269E-1    3.609742105354921E-1
 1.007000000000000E+10  -2.996553353233629E-1    6.204153050067400E-1
 1.008000000000000E+10   7.842056098935957E-2    6.857814622427487E-1
 1.009000000000000E+10   4.296655206229623E-1    5.399510168194146E-1
 1.010000000000000E+10   6.484127052505414E-1    2.314216564925035E-1
 1.011000000000000E+10   6.732732298109890E-1   -1.507027096117771E-1
 1.012000000000000E+10   4.922400374162594E-1   -4.868906870914810E-1
 1.013000000000000E+10   1.595339063409629E-1   -6.746307394905565E-1
 1.014000000000000E+10  -2.226304751609003E-1   -6.541842828025082E-1
 1.015000000000000E+10  -5.342305475888015E-1   -4.315198792877417E-1
 1.016000000000000E+10  -6.830256241884982E-1   -8.014529090592815E-2
 1.017000000000000E+10  -6.206886201720913E-1    2.935401059932679E-1
 1.018000000000000E+10  -3.711402275318127E-1    5.754619495670336E-1
 1.019000000000000E+10  -1.111599098858245E-2    6.842871586321888E-1
 1.020000000000000E+10   3.542121092052105E-1    5.884884723400590E-1
 1.021000000000000E+10   6.124307590389100E-1    3.162360795441222E-1
 1.022000000000000E+10   6.884528395897096E-1   -5.481096242109852E-2
 1.023000000000000E+10   5.543407853093272E-1   -4.129269247942111E-1
 1.024000000000000E+10   2.482577508239387E-1   -6.459878453746002E-1
 1.025000000000000E+10  -1.358387533843474E-1   -6.804989486603240E-1
 1.026000000000000E+10  -4.742445262584374E-1   -4.988740956172925E-1
 1.027000000000000E+10  -6.642928866014240E-1   -1.653936885739290E-1
 1.028000000000000E+10  -6.480550006703817E-1    2.186166125847347E-1
 1.029000000000000E+10  -4.288851131747372E-1    5.343096065709497E-1
 1.030000000000000E+10  -7.561263358420849E-2    6.816064564508939E-1
 1.031000000000000E+10   3.052585808952326E-1    6.136758911903136E-1
 1.032000000000000E+10   5.904221485476788E-1    3.526015165492358E-1
 1.033000000000000E+10   6.915466674303850E-1   -1.966146559988128E-2
 1.034000000000000E+10   5.764266276426269E-1   -3.888137367177339E-1
 1.035000000000000E+10   2.763260992725246E-1   -6.377990420939978E-1
 1.036000000000000E+10  -1.148813704886625E-1   -6.881922476264648E-1
 1.037000000000000E+10  -4.709958650699822E-1   -5.163005424058690E-1
 1.038000000000000E+10  -6.735637029923006E-1   -1.771144855188024E-1
 1.039000000000000E+10  -6.564653787760844E-1    2.163484376438806E-1
 1.040000000000000E+10  -4.280267506624305E-1    5.362148484040211E-1
 1.041000000000000E+10  -6.610707332889110E-2    6.826098991417775E-1
 1.042000000000000E+10   3.170658254253107E-1    6.075596110077048E-1
 1.043000000000000E+10   5.988713507070761E-1    3.327290338621322E-1
 1.044000000000000E+10   6.833095707670851E-1   -5.658468989286655E-2
 1.045000000000000E+10   5.358829134778930E-1   -4.309903938480014E-1
 1.046000000000000E+10   2.024963727574179E-1   -6.563789486850304E-1
 1.047000000000000E+10  -2.028347155028184E-1   -6.526440758136637E-1
 1.048000000000000E+10  -5.359437608650583E-1   -4.203218793663528E-1
 1.049000000000000E+10  -6.805907439669967E-1   -4.138611689622888E-2
 1.050000000000000E+10  -5.868675083499609E-1    3.519560645119476E-1
 1.051000000000000E+10  -2.839408571300527E-1    6.200628938629533E-1
 1.052000000000000E+10   1.182677802003455E-1    6.730803197857672E-1
 1.053000000000000E+10   4.802813650018018E-1    4.906221960558922E-1
 1.054000000000000E+10   6.757616656581833E-1    1.365072046930907E-1
 1.055000000000000E+10   6.358216628002068E-1   -2.677961423834094E-1
 1.056000000000000E+10   3.675950249718811E-1   -5.846881511590474E-1
 1.057000000000000E+10  -3.750191520334182E-2   -6.920978356531593E-1
 1.058000000000000E+10  -4.334864924271586E-1   -5.416400114862618E-1
 1.059000000000000E+10  -6.655969834135962E-1   -1.848086353439659E-1
 1.060000000000000E+10  -6.436199680985121E-1    2.387128430919941E-1
 1.061000000000000E+10  -3.869592926621842E-1    5.705160290585533E-1
 1.062000000000000E+10   9.337614763202665E-3    6.913409765974148E-1
 1.063000000000000E+10   4.014734919898972E-1    5.656425060069374E-1
 1.064000000000000E+10   6.546961365598651E-1    2.393734613256509E-1
 1.065000000000000E+10   6.790450118266509E-1   -1.764509637418367E-1
 1.066000000000000E+10   4.614133749807353E-1   -5.309073767231342E-1
 1.067000000000000E+10   7.235751211342287E-2   -6.969353103771618E-1
 1.068000000000000E+10  -3.452278756734457E-1   -6.050631659506257E-1
 1.069000000000000E+10  -6.328617570044368E-1   -2.869118093611823E-1
 1.070000000000000E+10  -6.825156320788405E-1    1.376973146736799E-1
 1.071000000000000E+10  -4.722852168859556E-1    5.074816379976624E-1
 1.072000000000000E+10  -9.169947283081037E-2    6.911255997692749E-1
 1.073000000000000E+10   3.216173357547376E-1    6.278646065054010E-1
 1.074000000000000E+10   6.231317305180518E-1    3.462665023408577E-1
 1.075000000000000E+10   7.138991315169783E-1   -5.158720240312266E-2
 1.076000000000000E+10   5.685130929987025E-1   -4.382530556843703E-1
 1.077000000000000E+10   2.357536174053116E-1   -6.795018283476132E-1
 1.078000000000000E+10  -1.762045449182964E-1   -6.965097209152917E-1
 1.079000000000000E+10  -5.301909759834303E-1   -4.778794929819740E-1
 1.080000000000000E+10  -6.993098620387086E-1   -9.459940837273506E-2
 1.081000000000000E+10  -6.298733639287770E-1    3.173902179752641E-1
 1.082000000000000E+10  -3.416426853097371E-1    6.148232875130987E-1
 1.083000000000000E+10   5.838614082771156E-2    6.993977086168494E-1
 1.084000000000000E+10   4.359380856966197E-1    5.521238037767723E-1
 1.085000000000000E+10   6.729550296650817E-1    2.237884725504397E-1
 1.086000000000000E+10   6.904342291743469E-1   -1.751869592496995E-1
 1.087000000000000E+10   4.856555475123065E-1   -5.210531928602586E-1
 1.088000000000000E+10   1.219420010373201E-1   -6.993873874086002E-1
 1.089000000000000E+10  -2.814929528350860E-1   -6.487737672562884E-1
 1.090000000000000E+10  -5.911787210534752E-1   -3.859603304280447E-1
 1.091000000000000E+10  -6.968587581705521E-1    4.867202205360350E-3
 1.092000000000000E+10  -5.731310432442939E-1    3.896182404509251E-1
 1.093000000000000E+10  -2.624516145570911E-1    6.449893308493201E-1
 1.094000000000000E+10   1.340648452187325E-1    6.904094132354340E-1
 1.095000000000000E+10   4.875060050455651E-1    5.136557807225753E-1
 1.096000000000000E+10   6.919578479160436E-1    1.707208078811202E-1
 1.097000000000000E+10   6.797020281165728E-1   -2.274505178936464E-1
 1.098000000000000E+10   4.555598923187570E-1   -5.551898210448385E-1
 1.099000000000000E+10   8.947768491042750E-2   -7.098317209407565E-1
 1.100000000000000E+10  -3.044138733671666E-1   -6.394839999231611E-1
 1.101000000000000E+10  -6.037343162520927E-1   -3.686446696408761E-1
 1.102000000000000E+10  -7.056023641450136E-1    2.421264277494470E-2
 1.103000000000000E+10  -5.722075336055749E-1    4.074542701398953E-1
 1.104000000000000E+10  -2.519402980914787E-1    6.509461301002927E-1
 1.105000000000000E+10   1.442398288429768E-1    6.811605321158504E-1
 1.106000000000000E+10   4.892229836541518E-1    4.977412814258570E-1
 1.107000000000000E+10   6.798234549364166E-1    1.609028401643083E-1
 1.108000000000000E+10   6.608566250978951E-1   -2.270640496174991E-1
 1.109000000000000E+10   4.336208311243822E-1   -5.474717254525754E-1
 1.110000000000000E+10   6.525108686762779E-2   -6.944858360543317E-1
 1.111000000000000E+10  -3.202814395262762E-1   -6.099969606760347E-1
 1.112000000000000E+10  -5.972910947663328E-1   -3.229562499350146E-1
 1.113000000000000E+10  -6.704055560263885E-1    6.986424247541742E-2
 1.114000000000000E+10  -5.162452703935271E-1    4.359891568807994E-1
 1.115000000000000E+10  -1.884164422021562E-1    6.533163074699233E-1
 1.116000000000000E+10   2.039709469349063E-1    6.481486579864768E-1
 1.117000000000000E+10   5.291521777106908E-1    4.312759315654913E-1
 1.118000000000000E+10   6.820700222966701E-1    7.352853417036669E-2
 1.119000000000000E+10   6.134353158143605E-1   -3.079813171962263E-1
 1.120000000000000E+10   3.448486411426214E-1   -5.885889002976898E-1
 1.121000000000000E+10  -4.050484581323700E-2   -6.788684004904331E-1
 1.122000000000000E+10  -4.126099544152945E-1   -5.382934590124763E-1
 1.123000000000000E+10  -6.418114927021326E-1   -2.108022221392648E-1
 1.124000000000000E+10  -6.445070096002341E-1    1.890777600178747E-1
 1.125000000000000E+10  -4.222471599468647E-1    5.177735815475057E-1
 1.126000000000000E+10  -6.167448385600731E-2    6.705474224941543E-1
 1.127000000000000E+10   3.156827321285102E-1    5.970437663379135E-1
 1.128000000000000E+10   5.876303933228786E-1    3.328472228234127E-1
 1.129000000000000E+10   6.744072569801117E-1   -3.559999741146679E-2
 1.130000000000000E+10   5.477814442754763E-1   -3.962530757130235E-1
 1.131000000000000E+10   2.457822751131858E-1   -6.255615552297440E-1
 1.132000000000000E+10  -1.411862460327196E-1   -6.474034196150693E-1
 1.133000000000000E+10  -4.785590625658061E-1   -4.459503625254048E-1
 1.134000000000000E+10  -6.462549737403446E-1   -9.129074465434153E-2
 1.135000000000000E+10  -5.901177359049169E-1    2.917815759879434E-1
 1.136000000000000E+10  -3.244716783669698E-1    5.718016613180361E-1
 1.137000000000000E+10   4.674453861549587E-2    6.604762464155925E-1
 1.138000000000000E+10   4.035198024189783E-1    5.350915129635547E-1
 1.139000000000000E+10   6.340920713366900E-1    2.382372745992452E-1
 1.140000000000000E+10   6.661891505502441E-1   -1.351929853184760E-1
 1.141000000000000E+10   4.878618673042235E-1   -4.730591795863843E-1
 1.142000000000000E+10   1.517872466183769E-1   -6.593439542762325E-1
 1.143000000000000E+10  -2.334115809675798E-1   -6.292940239092695E-1
 1.144000000000000E+10  -5.389765875026650E-1   -3.885469479074204E-1
 1.145000000000000E+10  -6.578891813416328E-1   -1.572912283397189E-2
 1.146000000000000E+10  -5.552515798234581E-1    3.619789462766113E-1
 1.147000000000000E+10  -2.611380287849269E-1    6.153226150965219E-1
 1.148000000000000E+10   1.204172821686708E-1    6.614465300568884E-1
 1.149000000000000E+10   4.618537318937626E-1    4.922502241812164E-1
 1.150000000000000E+10   6.579997691715553E-1    1.668713815823707E-1
 1.151000000000000E+10   6.505117699002871E-1   -2.058801024174973E-1
 1.152000000000000E+10   4.406357276287092E-1   -5.177128351430562E-1
 1.153000000000000E+10   8.744295643172523E-2   -6.687586966294087E-1
 1.154000000000000E+10  -2.981405966395969E-1   -6.009705240562998E-1
 1.155000000000000E+10  -5.845600345761490E-1   -3.321122279718487E-1
 1.156000000000000E+10  -6.658847116855430E-1    5.118295467205080E-2
 1.157000000000000E+10  -5.233115500832775E-1    4.130481230537293E-1
 1.158000000000000E+10  -2.103369823755076E-1    6.374848681980509E-1
 1.159000000000000E+10   1.715486621921962E-1    6.581374583357273E-1
 1.160000000000000E+10   5.026896394985780E-1    4.702598162675504E-1
 1.161000000000000E+10   6.782994645946776E-1    1.320420652779226E-1
 1.162000000000000E+10   6.466443034701334E-1   -2.488532098876668E-1
 1.163000000000000E+10   4.140658716540476E-1   -5.547326462482361E-1
 1.164000000000000E+10   4.953377962623530E-2   -6.869975550200905E-1
 1.165000000000000E+10  -3.333013061067576E-1   -5.966385775575547E-1
 1.166000000000000E+10  -6.112816638895079E-1   -3.060769035758472E-1
 1.167000000000000E+10  -6.818605880309727E-1    9.060121617751769E-2
 1.168000000000000E+10  -5.170327304130398E-1    4.588432930435032E-1
 1.169000000000000E+10  -1.733441632329394E-1    6.699141887868608E-1
 1.170000000000000E+10   2.285079296761561E-1    6.535861999748483E-1
 1.171000000000000E+10   5.537873256826497E-1    4.296432641145627E-1
 1.172000000000000E+10   6.988105757863557E-1    6.548247441412505E-2
 1.173000000000000E+10   6.192545914602676E-1   -3.198480815192312E-1
 1.174000000000000E+10   3.384709941673995E-1   -6.029496449799946E-1
 1.175000000000000E+10  -5.699477163073880E-2   -6.878453058615217E-1
 1.176000000000000E+10  -4.321967293046725E-1   -5.368700704521447E-1
 1.177000000000000E+10  -6.590936323036343E-1   -1.945001224976536E-1
 1.178000000000000E+10  -6.516651874043735E-1    2.166772801907330E-1
 1.179000000000000E+10  -4.174815666766182E-1    5.497596120622695E-1
 1.180000000000000E+10  -4.317708406041802E-2    6.961517421901865E-1
 1.181000000000000E+10   3.469545273212121E-1    6.068645999912387E-1
 1.182000000000000E+10   6.247777070656947E-1    3.207567300641516E-1
 1.183000000000000E+10   7.002738888980445E-1   -7.161173628801455E-2
 1.184000000000000E+10   5.446628117860327E-1   -4.411898478979870E-1
 1.185000000000000E+10   2.072340229289743E-1   -6.614677382639266E-1
 1.186000000000000E+10  -2.076395935838370E-1   -6.530916508546462E-1
 1.187000000000000E+10  -5.436607733474143E-1   -4.097159294703374E-1
 1.188000000000000E+10  -6.776668668475450E-1   -1.808753771427761E-2
 1.189000000000000E+10  -5.603076636711459E-1    3.776098293230502E-1
 1.190000000000000E+10  -2.376727770144081E-1    6.318731758672232E-1
 1.191000000000000E+10   1.642625177679179E-1    6.630582509592914E-1
 1.192000000000000E+10   5.075245692303049E-1    4.638616317071547E-1
 1.193000000000000E+10   6.785294311782566E-1    1.094378205508044E-1
 1.194000000000000E+10   6.248562356143728E-1   -2.808150355610075E-1
 1.195000000000000E+10   3.632179940788662E-1   -5.801953115043327E-1
 1.196000000000000E+10  -1.707970373429823E-2   -6.804460296942879E-1
 1.197000000000000E+10  -3.925569779397484E-1   -5.493960085675702E-1
 1.198000000000000E+10  -6.309911052709729E-1   -2.270475490682422E-1
 1.199000000000000E+10  -6.461379023017013E-1    1.733050018592823E-1
 1.200000000000000E+10  -4.361820003046424E-1    5.101033791279630E-1
 1.201000000000000E+10  -7.562560890783000E-2    6.656902137751817E-1
 1.202000000000000E+10   3.072274254423225E-1    5.979614394655008E-1
 1.203000000000000E+10   5.892938559349840E-1    3.332139782828077E-1
 1.204000000000000E+10   6.793370611275901E-1   -4.322508332152406E-2
 1.205000000000000E+10   5.445988235585765E-1   -4.070092708665038E-1
 1.206000000000000E+10   2.239125714015160E-1   -6.407282773767009E-1
 1.207000000000000E+10  -1.726470593257270E-1   -6.561646616393919E-1
 1.208000000000000E+10  -5.075914810402649E-1   -4.484722526369003E-1
 1.209000000000000E+10  -6.682518628820361E-1   -9.091415911373726E-2
 1.210000000000000E+10  -6.019429124944521E-1    2.955413364907427E-1
 1.211000000000000E+10  -3.407696763669734E-1    5.844637983791175E-1
 1.212000000000000E+10   3.236391216667426E-2    6.808505525246712E-1
 1.213000000000000E+10   3.946228906068375E-1    5.561745194281377E-1
 1.214000000000000E+10   6.286659651777241E-1    2.538037347603455E-1
 1.215000000000000E+10   6.615747663481221E-1   -1.274152811179263E-1
 1.216000000000000E+10   4.860044304107896E-1   -4.616836775216682E-1
 1.217000000000000E+10   1.561264244375346E-1   -6.457643937308143E-1
 1.218000000000000E+10  -2.225232148183770E-1   -6.198834629988560E-1
 1.219000000000000E+10  -5.268413232190458E-1   -3.898631524046267E-1
 1.220000000000000E+10  -6.553555794203729E-1   -3.042704465732056E-2
 1.221000000000000E+10  -5.611076933072392E-1    3.381306700026970E-1
 1.222000000000000E+10  -2.802901365234182E-1    5.931198618587814E-1
 1.223000000000000E+10   9.097552379645904E-2    6.528947882037552E-1
 1.224000000000000E+10   4.320853205190060E-1    5.035864468149321E-1
 1.225000000000000E+10   6.371649226810889E-1    1.960031275467586E-1
 1.226000000000000E+10   6.396008936958631E-1   -1.764191504428060E-1
 1.227000000000000E+10   4.439457206031910E-1   -4.920843890024969E-1
 1.228000000000000E+10   1.107115854921680E-1   -6.529307678669757E-1
 1.229000000000000E+10  -2.553789607521958E-1   -6.085927202882951E-1
 1.230000000000000E+10  -5.393698368443723E-1   -3.729781693785929E-1
 1.231000000000000E+10  -6.548954690464832E-1   -1.778351633337898E-2
 1.232000000000000E+10  -5.627069978418682E-1    3.417909019672765E-1
 1.233000000000000E+10  -2.902517341285093E-1    5.950717386157316E-1
 1.234000000000000E+10   7.950715801294238E-2    6.586674382744941E-1
 1.235000000000000E+10   4.261427844422016E-1    5.070232213543722E-1
 1.236000000000000E+10   6.374505613967387E-1    1.965124664854417E-1
 1.237000000000000E+10   6.438195209187172E-1   -1.789859877556192E-1
 1.238000000000000E+10   4.449285273177224E-1   -4.973908560428392E-1
 1.239000000000000E+10   1.047963283442963E-1   -6.587249558358268E-1
 1.240000000000000E+10  -2.709347030581190E-1   -6.116661067504344E-1
 1.241000000000000E+10  -5.574418627144714E-1   -3.717941126816840E-1
 1.242000000000000E+10  -6.705565353388475E-1   -1.356284228026687E-2
 1.243000000000000E+10  -5.731588888623625E-1    3.506722722253144E-1
 1.244000000000000E+10  -2.954205388696950E-1    6.062130684621062E-1
 1.245000000000000E+10   7.609098569108368E-2    6.734728342742280E-1
 1.246000000000000E+10   4.231946988439996E-1    5.238172257162527E-1
 1.247000000000000E+10   6.389303957981847E-1    2.095580485125806E-1
 1.248000000000000E+10   6.532683979925994E-1   -1.736452047269989E-1
 1.249000000000000E+10   4.569056464200406E-1   -5.044515028577085E-1
 1.250000000000000E+10   1.104520524409763E-1   -6.726355421219441E-1
