#  HZ   S   RI   R     50.00 
! Rohde & Schwarz Vector Network Analyzer 
! Rohde-Schwarz,ZNA43-4Port,1332450044101932,2.92
! Created: UTC 6/2/2026, 7:38:34 AM
! freq[Hz]                re:S11                  im:S11
 8.000000000000000E9     3.479723671777816E-1   -6.594866686202823E-1
 8.010000000000000E9    -8.629197281681847E-2   -7.403828661258012E-1
 8.020000000000000E9    -4.874503111428632E-1   -5.620096030456109E-1
 8.030000000000000E9    -7.188453844640156E-1   -1.854463790639302E-1
 8.040000000000000E9    -6.962601880970811E-1    2.587441988196617E-1
 8.050000000000000E9    -4.293365088162343E-1    6.107172748030837E-1
 8.060000000000000E9    -2.080603999590913E-2    7.485351505096236E-1
 8.070000000000000E9     3.922600357727427E-1    6.376979602696659E-1
 8.080000000000000E9     6.764857613830173E-1    3.228044047335162E-1
 8.090000000000000E9     7.463509519034235E-1   -9.431193477317402E-2
 8.100000000000000E9     5.788905729967752E-1   -4.829809144741840E-1
 8.110000000000000E9     2.210476795328045E-1   -7.188390373254380E-1
 8.120000000000000E9    -2.107387269094719E-1   -7.212564322741771E-1
 8.130000000000000E9    -5.727443854151970E-1   -4.857493903250221E-1
 8.140000000000000E9    -7.442424755694496E-1   -9.207284507396771E-2
 8.150000000000000E9    -6.721014173369130E-1    3.280754278112578E-1
 8.160000000000000E9    -3.793014430316953E-1    6.466903309036618E-1
 8.170000000000000E9     3.246542775855728E-2    7.546844771823551E-1
 8.180000000000000E9     4.333457390207680E-1    6.231771696134496E-1
 8.190000000000000E9     6.980062290005299E-1    2.949139350635684E-1
 8.200000000000000E9     7.427147708295213E-1   -1.268960271686142E-1
 8.210000000000000E9     5.579313071343407E-1   -5.090720092412213E-1
 8.220000000000000E9     1.931643863208004E-1   -7.268374247062453E-1
 8.230000000000000E9    -2.349021133797179E-1   -7.073685554430460E-1
 8.240000000000000E9    -5.864827174949732E-1   -4.511373370151230E-1
 8.250000000000000E9    -7.398859159137793E-1   -3.757273702815457E-2
 8.260000000000000E9    -6.381273868414479E-1    3.828916949603927E-1
 8.270000000000000E9    -3.140003394168294E-1    6.755937148377248E-1
 8.280000000000000E9     1.180548720845497E-1    7.346506807966300E-1
 8.290000000000000E9     5.063904097822035E-1    5.448312196870799E-1
 8.300000000000000E9     7.237602751088120E-1    1.744232192821624E-1
 8.310000000000000E9     6.901139519536504E-1   -2.500472087533059E-1
 8.320000000000000E9     4.408519548108118E-1   -5.870974362019591E-1
 8.330000000000000E9     2.676287780212819E-2   -7.399879230850194E-1
 8.340000000000000E9    -4.079215835921199E-1   -6.168837349970854E-1
 8.350000000000000E9    -6.867011896883912E-1   -2.593934191503232E-1
 8.360000000000000E9    -7.029936455041114E-1    2.041703287936769E-1
 8.370000000000000E9    -4.460231953871874E-1    5.847624221262090E-1
 8.380000000000000E9    -2.018200028947632E-2    7.404156481814407E-1
 8.390000000000000E9     4.132276585576087E-1    6.185151997037920E-1
 8.400000000000000E9     6.945893502812104E-1    2.663494510113540E-1
 8.410000000000000E9     7.256664191460971E-1   -1.857559383747468E-1
 8.420000000000000E9     4.834254400983825E-1   -5.708949561033250E-1
 8.430000000000000E9     5.568663186977329E-2   -7.381640670414743E-1
 8.440000000000000E9    -3.935260915574932E-1   -6.156284298829588E-1
 8.450000000000000E9    -6.843659022086788E-1   -2.433957150555597E-1
 8.460000000000000E9    -6.881725066679721E-1    2.219034315639587E-1
 8.470000000000000E9    -4.092832683187067E-1    5.957560946263659E-1
 8.480000000000000E9     3.784283136011816E-2    7.253032895729207E-1
 8.490000000000000E9     4.699182061872267E-1    5.622336347399868E-1
 8.500000000000000E9     7.181457822470848E-1    1.784336469951310E-1
 8.510000000000000E9     6.855509642834484E-1   -2.754969924407303E-1
 8.520000000000000E9     3.936934441331230E-1   -6.249188027897923E-1
 8.530000000000000E9    -5.205731753154860E-2   -7.365312639602755E-1
 8.540000000000000E9    -4.797512024248423E-1   -5.566530443613342E-1
 8.550000000000000E9    -7.103254655260817E-1   -1.541078770790989E-1
 8.560000000000000E9    -6.579707857786805E-1    3.108906649454773E-1
 8.570000000000000E9    -3.441879816130477E-1    6.462427516342623E-1
 8.580000000000000E9     9.772032239555915E-2    7.308552962440723E-1
 8.590000000000000E9     5.021953527725140E-1    5.451857661528167E-1
 8.600000000000000E9     7.254624316320651E-1    1.603994823511891E-1
 8.610000000000000E9     6.949445803329221E-1   -2.784793446789854E-1
 8.620000000000000E9     4.167001267064550E-1   -6.192349114034076E-1
 8.630000000000000E9    -9.252361265076919E-3   -7.376350653244710E-1
 8.640000000000000E9    -4.289468106411630E-1   -5.895558351220865E-1
 8.650000000000000E9    -6.908331761633019E-1   -2.264844284174528E-1
 8.660000000000000E9    -6.894203690500260E-1    2.169611938387199E-1
 8.670000000000000E9    -4.324053948197788E-1    5.792182751999003E-1
 8.680000000000000E9    -1.366040202748111E-2    7.277724732498743E-1
 8.690000000000000E9     4.124585523576433E-1    6.094653513246611E-1
 8.700000000000000E9     6.920914964359413E-1    2.723875798408112E-1
 8.710000000000000E9     7.254394309853410E-1   -1.636068823147113E-1
 8.720000000000000E9     5.083981675108894E-1   -5.408493637558810E-1
 8.730000000000000E9     1.168674709489979E-1   -7.310007315022334E-1
 8.740000000000000E9    -3.162245099178622E-1   -6.657804971286541E-1
 8.750000000000000E9    -6.365616358395637E-1   -3.612101946627836E-1
 8.760000000000000E9    -7.285493730277723E-1    7.915961903818466E-2
 8.770000000000000E9    -5.484139265303132E-1    4.915104906142060E-1
 8.780000000000000E9    -1.655309815328845E-1    7.203895734017507E-1
 8.790000000000000E9     2.758631921432363E-1    6.872650822294778E-1
 8.800000000000000E9     6.201049350927335E-1    4.077678207880678E-1
 8.810000000000000E9     7.485679088454278E-1   -1.402513659677902E-2
 8.820000000000000E9     6.107721029019462E-1   -4.357733386458945E-1
 8.830000000000000E9     2.491971267342065E-1   -7.018783365378580E-1
 8.840000000000000E9    -2.038940856738022E-1   -7.066147208872348E-1
 8.850000000000000E9    -5.765350410485698E-1   -4.459897875597296E-1
 8.860000000000000E9    -7.227811067496557E-1   -1.921728635972300E-2
 8.870000000000000E9    -5.910660329510625E-1    4.109249179405746E-1
 8.880000000000000E9    -2.352621674506199E-1    6.823501756908159E-1
 8.890000000000000E9     2.082788115100956E-1    6.973708017061963E-1
 8.900000000000000E9     5.750600782320973E-1    4.572125738698221E-1
 8.910000000000000E9     7.348982209842617E-1    4.971124300748195E-2
 8.920000000000000E9     6.344134484649913E-1   -3.754738013936844E-1
 8.930000000000000E9     3.096258294711965E-1   -6.675169270522215E-1
 8.940000000000000E9    -1.250963606753832E-1   -7.211747958093848E-1
 8.950000000000000E9    -5.127499904339948E-1   -5.133079939992531E-1
 8.960000000000000E9    -7.126852420640124E-1   -1.166691973498434E-1
 8.970000000000000E9    -6.493312062491912E-1    3.188915389035566E-1
 8.980000000000000E9    -3.502244312693361E-1    6.344385192446200E-1
 8.990000000000000E9     7.068393468116151E-2    7.210992972153829E-1
 9.000000000000000E9     4.646958827715396E-1    5.570747903609199E-1
 9.010000000000000E9     7.007316474126688E-1    2.105972256796310E-1
 9.020000000000000E9     7.046104845984671E-1   -2.067580222124931E-1
 9.030000000000000E9     4.733025931458198E-1   -5.587401066435663E-1
 9.040000000000000E9     7.948189343586375E-2   -7.229271209570073E-1
 9.050000000000000E9    -3.413746856641175E-1   -6.376144590378268E-1
 9.060000000000000E9    -6.377256445862547E-1   -3.314688216323344E-1
 9.070000000000000E9    -7.093201936151747E-1    8.725843761005876E-2
 9.080000000000000E9    -5.370185466008858E-1    4.728578607973469E-1
 9.090000000000000E9    -1.823127579535219E-1    6.987116561598504E-1
 9.100000000000000E9     2.365376382432862E-1    6.918003947974364E-1
 9.110000000000000E9     5.789678414912758E-1    4.539312223569223E-1
 9.120000000000000E9     7.365093920863603E-1    6.718462547387551E-2
 9.130000000000000E9     6.574621293007599E-1   -3.431240508708374E-1
 9.140000000000000E9     3.673267200286960E-1   -6.440731030916546E-1
 9.150000000000000E9    -4.111716970872633E-2   -7.377642166214153E-1
 9.160000000000000E9    -4.396467461646234E-1   -5.874433057535536E-1
 9.170000000000000E9    -6.919980273085848E-1   -2.455279847919273E-1
 9.180000000000000E9    -7.155995354897393E-1    1.769221324082214E-1
 9.190000000000000E9    -5.034525030326810E-1    5.411395986776225E-1
 9.200000000000000E9    -1.265003939300128E-1    7.291998376095695E-1
 9.210000000000000E9     2.931938815151730E-1    6.875894695422056E-1
 9.220000000000000E9     6.209544286314179E-1    4.253217491854758E-1
 9.230000000000000E9     7.533669661725421E-1    2.706149214969982E-2
 9.240000000000000E9     6.470612183958813E-1   -3.814022926463618E-1
 9.250000000000000E9     3.321125168351386E-1   -6.677731882441379E-1
 9.260000000000000E9    -8.582772378374343E-2   -7.363690533901031E-1
 9.270000000000000E9    -4.738220787126207E-1   -5.611769630906402E-1
 9.280000000000000E9    -7.001214398127219E-1   -2.005371855486173E-1
 9.290000000000000E9    -6.911730668843228E-1    2.237154822154638E-1
 9.300000000000000E9    -4.528477006769397E-1    5.732415157034846E-1
 9.310000000000000E9    -6.537323238565247E-2    7.300254537767528E-1
 9.320000000000000E9     3.471466793611924E-1    6.511658548345650E-1
 9.330000000000000E9     6.513421117770322E-1    3.570138427340586E-1
 9.340000000000000E9     7.425251282521719E-1   -5.796162753115547E-2
 9.350000000000000E9     5.882959973543966E-1   -4.532837586213558E-1
 9.360000000000000E9     2.328456346189544E-1   -6.956079117084616E-1
 9.370000000000000E9    -2.003721069614075E-1   -7.002395919766392E-1
 9.380000000000000E9    -5.620505967564232E-1   -4.614515402088436E-1
 9.390000000000000E9    -7.228934749610870E-1   -5.970432471509946E-2
 9.400000000000000E9    -6.217941308560280E-1    3.617948263896104E-1
 9.410000000000000E9    -2.997943854843543E-1    6.567431646828947E-1
 9.420000000000000E9     1.328542825003947E-1    7.132205834580025E-1
 9.430000000000000E9     5.189451030831670E-1    5.097759648662908E-1
 9.440000000000000E9     7.168437321820160E-1    1.185089027459127E-1
 9.450000000000000E9     6.486382676632052E-1   -3.192393286314496E-1
 9.460000000000000E9     3.357155265450295E-1   -6.370511426205876E-1
 9.470000000000000E9    -1.098786346468897E-1   -7.062791601479859E-1
 9.480000000000000E9    -5.108665952650681E-1   -4.908772748677210E-1
 9.490000000000000E9    -7.002905876252622E-1   -7.512091375860228E-2
 9.500000000000000E9    -5.999058932501280E-1    3.695278296198048E-1
 9.510000000000000E9    -2.513028501349901E-1    6.545379880352127E-1
 9.520000000000000E9     1.980354022412047E-1    6.709947193278973E-1
 9.530000000000000E9     5.677511905486907E-1    4.123351422143183E-1
 9.540000000000000E9     7.042666623901903E-1   -1.887134720732835E-2
 9.550000000000000E9     5.474413804128502E-1   -4.420094881490272E-1
 9.560000000000000E9     1.575324174414251E-1   -6.791347673675674E-1
 9.570000000000000E9    -2.927781236690176E-1   -6.294308833358779E-1
 9.580000000000000E9    -6.171870389796870E-1   -3.203106365256659E-1
 9.590000000000000E9    -6.881169411755851E-1    1.179235934267071E-1
 9.600000000000000E9    -4.816156742649205E-1    5.069838474920527E-1
 9.610000000000000E9    -9.128413798484665E-2    6.992223976609191E-1
 9.620000000000000E9     3.332253448148455E-1    6.263294980202714E-1
 9.630000000000000E9     6.332274152242898E-1    3.214500412082610E-1
 9.640000000000000E9     7.002802510282311E-1   -9.990373327932278E-2
 9.650000000000000E9     5.108792695892478E-1   -4.828317028553920E-1
 9.660000000000000E9     1.404558362960079E-1   -6.854334928974494E-1
 9.670000000000000E9    -2.776181745121173E-1   -6.372608628170198E-1
 9.680000000000000E9    -5.906444967096401E-1   -3.601047987984040E-1
 9.690000000000000E9    -6.905479366573236E-1    4.060589017467454E-2
 9.700000000000000E9    -5.525584598595195E-1    4.225589629324998E-1
 9.710000000000000E9    -2.292021435156971E-1    6.570144794878728E-1
 9.720000000000000E9     1.660338354231700E-1    6.769709537999217E-1
 9.730000000000000E9     5.078667765216958E-1    4.823441309685605E-1
 9.740000000000000E9     6.909489625779471E-1    1.355299891666971E-1
 9.750000000000000E9     6.569345413559743E-1   -2.543562326178527E-1
 9.760000000000000E9     4.107403930860544E-1   -5.662886722267099E-1
 9.770000000000000E9     3.464814079030048E-2   -6.944887212830031E-1
 9.780000000000000E9    -3.479429187351774E-1   -5.983464468414570E-1
 9.790000000000000E9    -6.149788649379122E-1   -3.129028496484801E-1
 9.800000000000000E9    -6.849629357508603E-1    6.939833168833646E-2
 9.810000000000000E9    -5.423056250985391E-1    4.290831286296828E-1
 9.820000000000000E9    -2.322813045813081E-1    6.570604862680022E-1
 9.830000000000000E9     1.502993324076168E-1    6.845082311154211E-1
 9.840000000000000E9     4.876363311747030E-1    5.043642793153700E-1
 9.850000000000000E9     6.783302604180635E-1    1.729950307122495E-1
 9.860000000000000E9     6.696632176841151E-1   -2.101304753072051E-1
 9.870000000000000E9     4.573966313973302E-1   -5.305266209067345E-1
 9.880000000000000E9     1.050094173639046E-1   -6.888867631341108E-1
 9.890000000000000E9    -2.792942580398595E-1   -6.341840232849154E-1
 9.900000000000000E9    -5.751080334549475E-1   -3.826516088996965E-1
 9.910000000000000E9    -6.906766132655043E-1   -1.649874091367211E-2
 9.920000000000000E9    -5.918912028928858E-1    3.533445150626421E-1
 9.930000000000000E9    -3.133209900773474E-1    6.131349748792658E-1
 9.940000000000000E9     5.822512595071196E-2    6.878849362883647E-1
 9.950000000000000E9     4.128385471699248E-1    5.582885220814633E-1
 9.960000000000000E9     6.414606974753946E-1    2.581902486833049E-1
 9.970000000000000E9     6.788993114775577E-1   -1.194523805999100E-1
 9.980000000000000E9     5.100670002293581E-1   -4.618651878319561E-1
 9.990000000000000E9     1.839524347515090E-1   -6.622564899730783E-1
 1.000000000000000E+10  -1.985325802693790E-1   -6.571328345241667E-1
 1.001000000000000E+10  -5.179338417502639E-1   -4.446340614447589E-1
 1.002000000000000E+10  -6.759600351194431E-1   -9.415703073774363E-2
 1.003000000000000E+10  -6.221575069201855E-1    2.858895568288539E-1
 1.004000000000000E+10  -3.715957944575778E-1    5.772225208546655E-1
 1.005000000000000E+10  -2.225918233292246E-3    6.854125440674518E-1
 1.006000000000000E+10   3.703069802475212E-1    5.803938239769418E-1
 1.007000000000000E+10   6.255857234180899E-1    2.890633219292283E-1
 1.008000000000000E+10   6.804011808843280E-1   -9.489524109393305E-2
 1.009000000000000E+10   5.154976745232775E-1   -4.487661722567279E-1
 1.010000000000000E+10   1.789926099147670E-1   -6.565372769148058E-1
 1.011000000000000E+10  -2.163312952173652E-1   -6.471266449140837E-1
 1.012000000000000E+10  -5.411582628481605E-1   -4.161371274077280E-1
 1.013000000000000E+10  -6.808211380356769E-1   -3.941634599026406E-2
 1.014000000000000E+10  -5.842345806789025E-1    3.525945105041963E-1
 1.015000000000000E+10  -2.843947375513949E-1    6.244910106166246E-1
 1.016000000000000E+10   1.160512834117516E-1    6.774677633123994E-1
 1.017000000000000E+10   4.795303690238124E-1    4.936642607258052E-1
 1.018000000000000E+10   6.779552524009481E-1    1.316065802191708E-1
 1.019000000000000E+10   6.327849966392206E-1   -2.852145264003342E-1
 1.020000000000000E+10   3.510017480638305E-1   -6.022191369119745E-1
 1.021000000000000E+10  -7.214714340860107E-2   -6.914754838834075E-1
 1.022000000000000E+10  -4.690712084933695E-1   -5.126506114619096E-1
 1.023000000000000E+10  -6.839733387902559E-1   -1.338877605004076E-1
 1.024000000000000E+10  -6.338579278248204E-1    2.983487197058282E-1
 1.025000000000000E+10  -3.370565057400885E-1    6.177168180829319E-1
 1.026000000000000E+10   9.554913540005676E-2    7.031391334135796E-1
 1.027000000000000E+10   4.971670193606985E-1    5.150637353964859E-1
 1.028000000000000E+10   7.082431851110902E-1    1.230544603305068E-1
 1.029000000000000E+10   6.439714219610829E-1   -3.192023750129528E-1
 1.030000000000000E+10   3.276715247808372E-1   -6.394437620323495E-1
 1.031000000000000E+10  -1.142442374423910E-1   -7.123300573845449E-1
 1.032000000000000E+10  -5.136630542784195E-1   -5.077338024504207E-1
 1.033000000000000E+10  -7.131011940284199E-1   -1.038735433347663E-1
 1.034000000000000E+10  -6.337692387416892E-1    3.385545022411194E-1
 1.035000000000000E+10  -3.131524293963077E-1    6.472971274518732E-1
 1.036000000000000E+10   1.214210376909459E-1    7.073526194601133E-1
 1.037000000000000E+10   5.084786451503942E-1    5.043997332305854E-1
 1.038000000000000E+10   7.078971146948682E-1    1.161400641225051E-1
 1.039000000000000E+10   6.475431621853640E-1   -3.164623102382462E-1
 1.040000000000000E+10   3.486998246157549E-1   -6.338029196454156E-1
 1.041000000000000E+10  -8.186977023951522E-2   -7.188271577835658E-1
 1.042000000000000E+10  -4.807986689974671E-1   -5.414459261966257E-1
 1.043000000000000E+10  -7.035596054085844E-1   -1.730186327667347E-1
 1.044000000000000E+10  -6.794751545337741E-1    2.498532316813333E-1
 1.045000000000000E+10  -4.258271413593696E-1    5.824260436478100E-1
 1.046000000000000E+10  -3.199889210616376E-2    7.210734210698029E-1
 1.047000000000000E+10   3.699503944817655E-1    6.214855299056200E-1
 1.048000000000000E+10   6.494958331985615E-1    3.172453640151905E-1
 1.049000000000000E+10   7.137868898947390E-1   -9.124520017672637E-2
 1.050000000000000E+10   5.412745267708471E-1   -4.686236641844059E-1
 1.051000000000000E+10   1.928562472138363E-1   -6.901247265855940E-1
 1.052000000000000E+10  -2.186078469354181E-1   -6.805024283606672E-1
 1.053000000000000E+10  -5.564496558363938E-1   -4.448227148168409E-1
 1.054000000000000E+10  -7.084212574117587E-1   -6.106361217083346E-2
 1.055000000000000E+10  -6.246020110971944E-1    3.410158531436503E-1
 1.056000000000000E+10  -3.405451031386629E-1    6.245806839438204E-1
 1.057000000000000E+10   4.911715301407230E-2    7.068547275462526E-1
 1.058000000000000E+10   4.187452035506629E-1    5.691386116729567E-1
 1.059000000000000E+10   6.588082406482638E-1    2.585923386684392E-1
 1.060000000000000E+10   6.984027566225747E-1   -1.330237821334434E-1
 1.061000000000000E+10   5.162772417196166E-1   -4.858235012805366E-1
 1.062000000000000E+10   1.685602514186473E-1   -6.884221973998398E-1
 1.063000000000000E+10  -2.372565824487207E-1   -6.684112204057222E-1
 1.064000000000000E+10  -5.653512676913112E-1   -4.279151679863418E-1
 1.065000000000000E+10  -7.055065141791363E-1   -4.870408487152671E-2
 1.066000000000000E+10  -6.130276311066648E-1    3.477573854627864E-1
 1.067000000000000E+10  -3.255596826824774E-1    6.266457676984448E-1
 1.068000000000000E+10   6.142890433878800E-2    7.063590231045754E-1
 1.069000000000000E+10   4.281045897996162E-1    5.673484071078254E-1
 1.070000000000000E+10   6.627277595721004E-1    2.542968611308002E-1
 1.071000000000000E+10   7.016542008335789E-1   -1.370141270925384E-1
 1.072000000000000E+10   5.239484391959338E-1   -4.881971071334906E-1
 1.073000000000000E+10   1.830196297770867E-1   -6.887021563952996E-1
 1.074000000000000E+10  -2.165502910936648E-1   -6.724874330561048E-1
 1.075000000000000E+10  -5.477360009935645E-1   -4.383809185781116E-1
 1.076000000000000E+10  -6.968785338830330E-1   -6.600565870069977E-2
 1.077000000000000E+10  -6.138227113818000E-1    3.298181915542605E-1
 1.078000000000000E+10  -3.236060122820099E-1    6.128899729702203E-1
 1.079000000000000E+10   7.186989258421268E-2    6.875009903131294E-1
 1.080000000000000E+10   4.395105273505183E-1    5.366206436797822E-1
 1.081000000000000E+10   6.593694554947481E-1    2.108884592283971E-1
 1.082000000000000E+10   6.686714739629817E-1   -1.810438695157130E-1
 1.083000000000000E+10   4.641616442375064E-1   -5.178662562980836E-1
 1.084000000000000E+10   1.062007371750396E-1   -6.897735861120969E-1
 1.085000000000000E+10  -2.881953402526938E-1   -6.346505678864287E-1
 1.086000000000000E+10  -5.881938342520912E-1   -3.634181023388535E-1
 1.087000000000000E+10  -6.869343684873999E-1    2.820997249571288E-2
 1.088000000000000E+10  -5.528891074147589E-1    4.060670038443745E-1
 1.089000000000000E+10  -2.342361598414351E-1    6.448071710065846E-1
 1.090000000000000E+10   1.624403771989708E-1    6.664624088887063E-1
 1.091000000000000E+10   5.095265869547519E-1    4.670184490026961E-1
 1.092000000000000E+10   6.889936177301484E-1    1.103818117039832E-1
 1.093000000000000E+10   6.389443810420149E-1   -2.865704580857175E-1
 1.094000000000000E+10   3.729603751373585E-1   -5.893582783833520E-1
 1.095000000000000E+10  -2.188884915422080E-2   -6.924369410632357E-1
 1.096000000000000E+10  -4.061724613680039E-1   -5.601297247693213E-1
 1.097000000000000E+10  -6.483006809586811E-1   -2.310304832151441E-1
 1.098000000000000E+10  -6.594023521809749E-1    1.806355585334657E-1
 1.099000000000000E+10  -4.318815751592940E-1    5.262925545810202E-1
 1.100000000000000E+10  -4.916739663544510E-2    6.800176705817617E-1
 1.101000000000000E+10   3.479750650578471E-1    5.882116998133352E-1
 1.102000000000000E+10   6.206686200326318E-1    2.880811818016589E-1
 1.103000000000000E+10   6.780042170421203E-1   -1.116691016731350E-1
 1.104000000000000E+10   5.024020234886710E-1   -4.763589223887805E-1
 1.105000000000000E+10   1.490680843442724E-1   -6.804975390871576E-1
 1.106000000000000E+10  -2.653944625744186E-1   -6.423180162935499E-1
 1.107000000000000E+10  -5.864304308593294E-1   -3.703326839749607E-1
 1.108000000000000E+10  -6.911357009462434E-1    3.630858107083398E-2
 1.109000000000000E+10  -5.448920348681666E-1    4.246471514729273E-1
 1.110000000000000E+10  -2.079817241716477E-1    6.583422785744595E-1
 1.111000000000000E+10   2.042770834189397E-1    6.622557972540341E-1
 1.112000000000000E+10   5.440423287350141E-1    4.408037960821793E-1
 1.113000000000000E+10   7.022413709001861E-1    6.982258332419147E-2
 1.114000000000000E+10   6.259887599560777E-1   -3.281389400487798E-1
 1.115000000000000E+10   3.376125178750754E-1   -6.197753428388423E-1
 1.116000000000000E+10  -6.263677973921208E-2   -7.057955114656268E-1
 1.117000000000000E+10  -4.438681035499545E-1   -5.502016770481407E-1
 1.118000000000000E+10  -6.726301070657530E-1   -2.044696080884305E-1
 1.119000000000000E+10  -6.672112148695799E-1    2.124970805455971E-1
 1.120000000000000E+10  -4.286091584349443E-1    5.543368971356817E-1
 1.121000000000000E+10  -4.910090181091153E-2    7.007529475675380E-1
 1.122000000000000E+10   3.463993441693055E-1    6.122275337758744E-1
 1.123000000000000E+10   6.267634219618257E-1    3.229545607434510E-1
 1.124000000000000E+10   7.048348562756661E-1   -7.058052410600892E-2
 1.125000000000000E+10   5.566051201265020E-1   -4.442039972451184E-1
 1.126000000000000E+10   2.204345060632985E-1   -6.743695173897576E-1
 1.127000000000000E+10  -1.938629460777199E-1   -6.818081051560617E-1
 1.128000000000000E+10  -5.458545819244022E-1   -4.521681689010428E-1
 1.129000000000000E+10  -7.046349627960125E-1   -6.231851444957007E-2
 1.130000000000000E+10  -6.143460585587180E-1    3.438865857217141E-1
 1.131000000000000E+10  -3.077323876418315E-1    6.317054434076076E-1
 1.132000000000000E+10   9.582936578120113E-2    7.017002514832572E-1
 1.133000000000000E+10   4.652454861023602E-1    5.431892564967580E-1
 1.134000000000000E+10   6.872780110984603E-1    2.090460566356228E-1
 1.135000000000000E+10   6.887938070414502E-1   -1.970927040023960E-1
 1.136000000000000E+10   4.727805074562693E-1   -5.423658873978761E-1
 1.137000000000000E+10   9.663707206866116E-2   -7.108624786731763E-1
 1.138000000000000E+10  -3.135065578095941E-1   -6.373331912225434E-1
 1.139000000000000E+10  -6.126786613699229E-1   -3.420951306673761E-1
 1.140000000000000E+10  -6.926715908324212E-1    7.271511716574817E-2
 1.141000000000000E+10  -5.282782415633813E-1    4.514964913500158E-1
 1.142000000000000E+10  -1.812770749238849E-1    6.719679102643480E-1
 1.143000000000000E+10   2.276305485935654E-1    6.617465095931974E-1
 1.144000000000000E+10   5.601015718186241E-1    4.288345309652631E-1
 1.145000000000000E+10   7.089706323833316E-1    5.480190143177653E-2
 1.146000000000000E+10   6.232565761642218E-1   -3.384466608215622E-1
 1.147000000000000E+10   3.335582780209322E-1   -6.218339835273278E-1
 1.148000000000000E+10  -6.755227002898630E-2   -6.993503508270635E-1
 1.149000000000000E+10  -4.459985875530637E-1   -5.384390305638579E-1
 1.150000000000000E+10  -6.663043259139174E-1   -1.910294692152740E-1
 1.151000000000000E+10  -6.476777161272946E-1    2.289018669920203E-1
 1.152000000000000E+10  -3.973483793898341E-1    5.607119065729267E-1
 1.153000000000000E+10  -1.319799650408840E-2    6.911898141877199E-1
 1.154000000000000E+10   3.709386892721352E-1    5.875045826207901E-1
 1.155000000000000E+10   6.325510569660181E-1    2.885570639288573E-1
 1.156000000000000E+10   6.915220898798514E-1   -1.059110209878503E-1
 1.157000000000000E+10   5.212795243305808E-1   -4.696361387702621E-1
 1.158000000000000E+10   1.720066414639810E-1   -6.765673871676103E-1
 1.159000000000000E+10  -2.365288231570898E-1   -6.485228630433487E-1
 1.160000000000000E+10  -5.596152437277248E-1   -3.922660064807508E-1
 1.161000000000000E+10  -6.791562797615395E-1   -1.136959268463910E-3
 1.162000000000000E+10  -5.550369030778604E-1    3.871186364002673E-1
 1.163000000000000E+10  -2.348769939502550E-1    6.361439929488428E-1
 1.164000000000000E+10   1.665450206696984E-1    6.625778089472205E-1
 1.165000000000000E+10   5.109099320900885E-1    4.640294530705584E-1
 1.166000000000000E+10   6.815395225441996E-1    1.139979456934289E-1
 1.167000000000000E+10   6.323341467745511E-1   -2.738259136679805E-1
 1.168000000000000E+10   3.797012707211582E-1   -5.737468813851316E-1
 1.169000000000000E+10   3.303275491554554E-3   -6.879773229675062E-1
 1.170000000000000E+10  -3.748362393345995E-1   -5.742634831799216E-1
 1.171000000000000E+10  -6.276211608004195E-1   -2.601629327496862E-1
 1.172000000000000E+10  -6.649160984213179E-1    1.437757683099881E-1
 1.173000000000000E+10  -4.716895156953115E-1    4.975024567488623E-1
 1.174000000000000E+10  -1.186396965437450E-1    6.792242039023864E-1
 1.175000000000000E+10   2.702196353616956E-1    6.332934001051366E-1
 1.176000000000000E+10   5.739457198350609E-1    3.858332086711550E-1
 1.177000000000000E+10   6.944822154276294E-1    1.787626841454526E-2
 1.178000000000000E+10   5.961209650717728E-1   -3.572857185537223E-1
 1.179000000000000E+10   3.050305217433914E-1   -6.191240525834956E-1
 1.180000000000000E+10  -8.606933151900345E-2   -6.756616460844335E-1
 1.181000000000000E+10  -4.459019037106277E-1   -5.087711425683356E-1
 1.182000000000000E+10  -6.486179251874252E-1   -1.692175889673413E-1
 1.183000000000000E+10  -6.285880264465193E-1    2.226413212153865E-1
 1.184000000000000E+10  -3.994159553098703E-1    5.369507393598453E-1
 1.185000000000000E+10  -3.958392884286813E-2    6.757711230195887E-1
 1.186000000000000E+10   3.275338213610793E-1    5.979184162697142E-1
 1.187000000000000E+10   5.960528059948554E-1    3.368655803290884E-1
 1.188000000000000E+10   6.865272551062519E-1   -2.651672496005638E-2
 1.189000000000000E+10   5.729341742069303E-1   -3.834442247608430E-1
 1.190000000000000E+10   2.875813977612114E-1   -6.276400106896252E-1
 1.191000000000000E+10  -9.047792276184149E-2   -6.735015631609916E-1
 1.192000000000000E+10  -4.387408153420992E-1   -5.083684462266732E-1
 1.193000000000000E+10  -6.442148586389989E-1   -1.787856554715920E-1
 1.194000000000000E+10  -6.354838874267178E-1    2.094215725126942E-1
 1.195000000000000E+10  -4.149365111898152E-1    5.257602086633496E-1
 1.196000000000000E+10  -5.466594837649450E-2    6.712255850419127E-1
 1.197000000000000E+10   3.233344103949535E-1    5.984966409991979E-1
 1.198000000000000E+10   6.001470572821579E-1    3.350994935301504E-1
 1.199000000000000E+10   6.912168455636652E-1   -3.613160999491968E-2
 1.200000000000000E+10   5.651084842137305E-1   -4.008641055571278E-1
 1.201000000000000E+10   2.614427085084515E-1   -6.455611194508819E-1
 1.202000000000000E+10  -1.323003835534743E-1   -6.830665808481439E-1
 1.203000000000000E+10  -4.838027837183281E-1   -4.930633446836051E-1
 1.204000000000000E+10  -6.710870219859953E-1   -1.381627909802207E-1
 1.205000000000000E+10  -6.315065184964704E-1    2.616092206420049E-1
 1.206000000000000E+10  -3.851543497328081E-1    5.685512220395161E-1
 1.207000000000000E+10  -1.061546030866644E-2    6.892649242926890E-1
 1.208000000000000E+10   3.717302515644048E-1    5.846383544366228E-1
 1.209000000000000E+10   6.364391437799048E-1    2.857274125716763E-1
 1.210000000000000E+10   6.941894676847836E-1   -1.095336301905687E-1
 1.211000000000000E+10   5.194206806086671E-1   -4.691633348572216E-1
 1.212000000000000E+10   1.694264349806994E-1   -6.731115853057276E-1
 1.213000000000000E+10  -2.380099270474377E-1   -6.481790745760592E-1
 1.214000000000000E+10  -5.632597576528197E-1   -3.996169565664756E-1
 1.215000000000000E+10  -6.917052615898696E-1   -1.180432449521258E-2
 1.216000000000000E+10  -5.760583660817462E-1    3.859961503001294E-1
 1.217000000000000E+10  -2.571927882452664E-1    6.496325157765199E-1
 1.218000000000000E+10   1.516834128666928E-1    6.882674765300286E-1
 1.219000000000000E+10   5.084801614330633E-1    4.933047882792401E-1
 1.220000000000000E+10   6.949209463539759E-1    1.350746838726795E-1
 1.221000000000000E+10   6.538716729362761E-1   -2.689431553931822E-1
 1.222000000000000E+10   3.967386481753759E-1   -5.810857226939692E-1
 1.223000000000000E+10   8.108036354593859E-3   -6.973035189865034E-1
 1.224000000000000E+10  -3.811225830939105E-1   -5.746484702178197E-1
 1.225000000000000E+10  -6.352904682558523E-1   -2.523355000541151E-1
 1.226000000000000E+10  -6.650676752918224E-1    1.543291386373475E-1
 1.227000000000000E+10  -4.577825243413104E-1    5.046358108040681E-1
 1.228000000000000E+10  -8.817490535889792E-2    6.758453188056933E-1
 1.229000000000000E+10   3.142900139244789E-1    6.085651857084551E-1
 1.230000000000000E+10   6.083792662745765E-1    3.265648643095699E-1
 1.231000000000000E+10   6.864084557276939E-1   -6.699414926556835E-2
 1.232000000000000E+10   5.265231290211125E-1   -4.369428309402927E-1
 1.233000000000000E+10   1.873258954757102E-1   -6.516057638820987E-1
 1.234000000000000E+10  -2.101983118016902E-1   -6.405739762369578E-1
 1.235000000000000E+10  -5.318887611469125E-1   -4.119388526875090E-1
 1.236000000000000E+10  -6.663978461560341E-1   -3.871691411545838E-2
 1.237000000000000E+10  -5.699960140345937E-1    3.466859146553481E-1
 1.238000000000000E+10  -2.730826995284248E-1    6.109343662798347E-1
 1.239000000000000E+10   1.200296729499167E-1    6.594588126218182E-1
 1.240000000000000E+10   4.687656092598472E-1    4.765181154612612E-1
 1.241000000000000E+10   6.562021396457898E-1    1.266710040651444E-1
 1.242000000000000E+10   6.119180444003195E-1   -2.651136634026712E-1
 1.243000000000000E+10   3.539390965740230E-1   -5.609780247195131E-1
 1.244000000000000E+10  -2.559372765318174E-2   -6.575126380962721E-1
 1.245000000000000E+10  -3.917526356975289E-1   -5.222092972473593E-1
 1.246000000000000E+10  -6.199883637102420E-1   -2.124768381616308E-1
 1.247000000000000E+10  -6.314037290493985E-1    1.689825594564018E-1
 1.248000000000000E+10  -4.270606277783122E-1    4.890008145471273E-1
 1.249000000000000E+10  -8.057502933143040E-2    6.414901006575864E-1
 1.250000000000000E+10   2.914379155113500E-1    5.788431346607603E-1
