#  HZ   S   RI   R     50.00 
! Rohde & Schwarz Vector Network Analyzer 
! Rohde-Schwarz,ZNA43-4Port,1332450044101932,2.92
! Created: UTC 6/2/2026, 7:38:05 AM
! freq[Hz]                re:S11                  im:S11
 8.000000000000000E9    -3.398697192830872E-2   -7.481706821870400E-1
 8.010000000000000E9    -4.337676409272785E-1   -6.090943106312331E-1
 8.020000000000000E9    -6.946599489558731E-1   -2.724839997889197E-1
 8.030000000000000E9    -7.286855934041115E-1    1.574962530910104E-1
 8.040000000000000E9    -5.193735068498946E-1    5.373818111994220E-1
 8.050000000000000E9    -1.398808525846168E-1    7.388574139352598E-1
 8.060000000000000E9     2.813662190503420E-1    6.978055614020164E-1
 8.070000000000000E9     6.118278733900121E-1    4.369573775952047E-1
 8.080000000000000E9     7.518762128111662E-1    4.113644700127019E-2
 8.090000000000000E9     6.587164712880054E-1   -3.694747081554091E-1
 8.100000000000000E9     3.566192797862399E-1   -6.652756499811049E-1
 8.110000000000000E9    -6.611731852169711E-2   -7.503748283578852E-1
 8.120000000000000E9    -4.691876942313498E-1   -5.888933144955283E-1
 8.130000000000000E9    -7.157986992386912E-1   -2.320647470663547E-1
 8.140000000000000E9    -7.243400094576796E-1    1.991783099838706E-1
 8.150000000000000E9    -4.952832693984672E-1    5.619904877344369E-1
 8.160000000000000E9    -1.023219108562463E-1    7.459975445397659E-1
 8.170000000000000E9     3.220108058636481E-1    6.865431593125920E-1
 8.180000000000000E9     6.429326640933271E-1    4.047083492711033E-1
 8.190000000000000E9     7.560503233805685E-1   -9.500845265408148E-3
 8.200000000000000E9     6.218215012811154E-1   -4.222281199655336E-1
 8.210000000000000E9     2.856357891631513E-1   -6.946997812426763E-1
 8.220000000000000E9    -1.481842109934191E-1   -7.305287490815217E-1
 8.230000000000000E9    -5.313927389456199E-1   -5.123768582638726E-1
 8.240000000000000E9    -7.268849318886179E-1   -1.095673366278169E-1
 8.250000000000000E9    -6.581786874343695E-1    3.369537867339910E-1
 8.260000000000000E9    -3.470412055942544E-1    6.558917252831721E-1
 8.270000000000000E9     9.418367590565939E-2    7.357989835809003E-1
 8.280000000000000E9     4.992126279040358E-1    5.473757527830444E-1
 8.290000000000000E9     7.232329767041838E-1    1.634698625075237E-1
 8.300000000000000E9     6.877140826927413E-1   -2.813390077654216E-1
 8.310000000000000E9     3.925669780735880E-1   -6.274885368758678E-1
 8.320000000000000E9    -5.946601619124375E-2   -7.370610879903495E-1
 8.330000000000000E9    -4.937433356707432E-1   -5.482385952645512E-1
 8.340000000000000E9    -7.218239896094726E-1   -1.300911533033955E-1
 8.350000000000000E9    -6.453501841802268E-1    3.378782052239959E-1
 8.360000000000000E9    -2.993351842399468E-1    6.686031058868902E-1
 8.370000000000000E9     1.684598654993224E-1    7.195195422247787E-1
 8.380000000000000E9     5.677483915784793E-1    4.793238866276034E-1
 8.390000000000000E9     7.415468397767345E-1    4.668195045352490E-2
 8.400000000000000E9     6.198193616235124E-1   -4.070340547251274E-1
 8.410000000000000E9     2.507439748714935E-1   -6.964042087611497E-1
 8.420000000000000E9    -2.214196833932119E-1   -6.973677039105501E-1
 8.430000000000000E9    -5.973388110887284E-1   -4.060053749941447E-1
 8.440000000000000E9    -7.170864708511895E-1    5.668849920649268E-2
 8.450000000000000E9    -5.300233762790494E-1    4.953606022718604E-1
 8.460000000000000E9    -1.183163250458101E-1    7.185266182338503E-1
 8.470000000000000E9     3.419976161222572E-1    6.490985632920289E-1
 8.480000000000000E9     6.667515385217870E-1    3.218932274669239E-1
 8.490000000000000E9     7.346609461211804E-1   -1.294945391308519E-1
 8.500000000000000E9     5.248844486383768E-1   -5.324395347293889E-1
 8.510000000000000E9     1.152529467717460E-1   -7.362967366805955E-1
 8.520000000000000E9    -3.397461465049513E-1   -6.627384522600740E-1
 8.530000000000000E9    -6.650861488066598E-1   -3.308860859852785E-1
 8.540000000000000E9    -7.267095635769025E-1    1.291372248421513E-1
 8.550000000000000E9    -5.057391705427430E-1    5.305060887260670E-1
 8.560000000000000E9    -9.961965364496318E-2    7.332310639049169E-1
 8.570000000000000E9     3.390786410733146E-1    6.647785804565913E-1
 8.580000000000000E9     6.570788099742374E-1    3.614920990158437E-1
 8.590000000000000E9     7.474236629014507E-1   -6.938888651230106E-2
 8.600000000000000E9     5.770786912085119E-1   -4.776697892775444E-1
 8.610000000000000E9     2.103177030561835E-1   -7.161621056289771E-1
 8.620000000000000E9    -2.304117597523420E-1   -6.999326809121126E-1
 8.630000000000000E9    -5.847776318383489E-1   -4.322669746138081E-1
 8.640000000000000E9    -7.239209323254884E-1   -8.928251862314949E-3
 8.650000000000000E9    -5.970600159286379E-1    4.176330803278665E-1
 8.660000000000000E9    -2.443536897751611E-1    6.865539893829180E-1
 8.670000000000000E9     1.979420766987532E-1    7.060628122562914E-1
 8.680000000000000E9     5.705725420653327E-1    4.711433262904489E-1
 8.690000000000000E9     7.421960861295733E-1    6.951772717542552E-2
 8.700000000000000E9     6.571766581269497E-1   -3.555668686480535E-1
 8.710000000000000E9     3.426071616704899E-1   -6.591945890069312E-1
 8.720000000000000E9    -8.803898468150290E-2   -7.335929068497845E-1
 8.730000000000000E9    -4.876813189368797E-1   -5.500112630437122E-1
 8.740000000000000E9    -7.118024739169223E-1   -1.667146041666576E-1
 8.750000000000000E9    -6.717927801312207E-1    2.787523076293060E-1
 8.760000000000000E9    -3.844664398529012E-1    6.245576962493490E-1
 8.770000000000000E9     4.657109667832576E-2    7.366303382567179E-1
 8.780000000000000E9     4.592578240205445E-1    5.804352611921311E-1
 8.790000000000000E9     7.087349404792737E-1    2.166060881333609E-1
 8.800000000000000E9     7.063761408899211E-1   -2.285124065269667E-1
 8.810000000000000E9     4.539150547150196E-1   -5.897545418284299E-1
 8.820000000000000E9     3.267451042519173E-2   -7.384005215069819E-1
 8.830000000000000E9    -3.998838612367881E-1   -6.109867806858456E-1
 8.840000000000000E9    -6.774255329941214E-1   -2.549725806190677E-1
 8.850000000000000E9    -6.982075870678313E-1    1.936068668353876E-1
 8.860000000000000E9    -4.519568238158561E-1    5.646503941519894E-1
 8.870000000000000E9    -4.016518993020088E-2    7.254807109800606E-1
 8.880000000000000E9     3.862377660466508E-1    6.233329999013278E-1
 8.890000000000000E9     6.763862638686917E-1    3.001704496985986E-1
 8.900000000000000E9     7.326732482026336E-1   -1.264380026011813E-1
 8.910000000000000E9     5.355029510081281E-1   -5.146291585721515E-1
 8.920000000000000E9     1.537468305667515E-1   -7.240375965386220E-1
 8.930000000000000E9    -2.802090020797396E-1   -6.804782420207438E-1
 8.940000000000000E9    -6.130927761386396E-1   -3.967196358806593E-1
 8.950000000000000E9    -7.239400627468380E-1    2.667100394420627E-2
 8.960000000000000E9    -5.799099754339110E-1    4.386103407342641E-1
 8.970000000000000E9    -2.322315823058179E-1    6.926876989705210E-1
 8.980000000000000E9     1.929994984762612E-1    7.060339260450892E-1
 8.990000000000000E9     5.512761830755205E-1    4.822018726255575E-1
 9.000000000000000E9     7.283448529748233E-1    9.904804596397702E-2
 9.010000000000000E9     6.693527689129903E-1   -3.110290034693662E-1
 9.020000000000000E9     3.916052956511791E-1   -6.234881385075429E-1
 9.030000000000000E9    -1.913365514917860E-2   -7.308448712054064E-1
 9.040000000000000E9    -4.239202047562361E-1   -5.893948717196422E-1
 9.050000000000000E9    -6.810935418509180E-1   -2.471987101892740E-1
 9.060000000000000E9    -6.984883651857720E-1    1.779185847919697E-1
 9.070000000000000E9    -4.787733661720652E-1    5.389264112989961E-1
 9.080000000000000E9    -9.940849169806480E-2    7.197463245480701E-1
 9.090000000000000E9     3.159580118096000E-1    6.639299619766559E-1
 9.100000000000000E9     6.313302661921885E-1    3.899451358675130E-1
 9.110000000000000E9     7.446138566847413E-1   -1.504981413805920E-2
 9.120000000000000E9     6.177703437076396E-1   -4.178327756918694E-1
 9.130000000000000E9     2.899690835814289E-1   -6.859941011275085E-1
 9.140000000000000E9    -1.327622444847202E-1   -7.297957021991154E-1
 9.150000000000000E9    -5.113993732409016E-1   -5.314448299294765E-1
 9.160000000000000E9    -7.210639938217807E-1   -1.517241812232722E-1
 9.170000000000000E9    -6.861023331539559E-1    2.789922465780229E-1
 9.180000000000000E9    -4.177949738847263E-1    6.161770732396428E-1
 9.190000000000000E9    -6.845979045277544E-3    7.463061779468695E-1
 9.200000000000000E9     4.094087392998228E-1    6.264458119302063E-1
 9.210000000000000E9     6.910928366030850E-1    2.997555977185727E-1
 9.220000000000000E9     7.422067088956904E-1   -1.293540029065529E-1
 9.230000000000000E9     5.428084618592841E-1   -5.162465924848184E-1
 9.240000000000000E9     1.560719394263456E-1   -7.257380709658344E-1
 9.250000000000000E9    -2.848924949759206E-1   -6.786199131350292E-1
 9.260000000000000E9    -6.174749822358807E-1   -3.885252357615367E-1
 9.270000000000000E9    -7.229029527887938E-1    4.120936867874624E-2
 9.280000000000000E9    -5.635421485432401E-1    4.530287208241825E-1
 9.290000000000000E9    -1.985109576025160E-1    6.997020888945847E-1
 9.300000000000000E9     2.421132204612000E-1    6.928937538039270E-1
 9.310000000000000E9     5.982976556280740E-1    4.302504662748681E-1
 9.320000000000000E9     7.386154795749607E-1    5.086948012085028E-3
 9.330000000000000E9     6.014200945662850E-1   -4.245363741405648E-1
 9.340000000000000E9     2.359419030075848E-1   -6.899325921918128E-1
 9.350000000000000E9    -2.162770029373741E-1   -6.865134132296292E-1
 9.360000000000000E9    -5.839825890587835E-1   -4.084382852126819E-1
 9.370000000000000E9    -7.115954635436097E-1    3.177180966101976E-2
 9.380000000000000E9    -5.467256344237065E-1    4.565752914269891E-1
 9.390000000000000E9    -1.571068380852408E-1    6.917654268408052E-1
 9.400000000000000E9     2.964715493008218E-1    6.423201912749428E-1
 9.410000000000000E9     6.271499434628141E-1    3.355314858349389E-1
 9.420000000000000E9     7.027427784947767E-1   -1.087255600470947E-1
 9.430000000000000E9     4.921357728911093E-1   -5.083140877012333E-1
 9.440000000000000E9     8.007584701603339E-2   -6.980174476717569E-1
 9.450000000000000E9    -3.624285934966794E-1   -5.975277164855561E-1
 9.460000000000000E9    -6.488321295005552E-1   -2.502557208060682E-1
 9.470000000000000E9    -6.653799549787192E-1    1.973203907111718E-1
 9.480000000000000E9    -4.125715868021003E-1    5.606851543640937E-1
 9.490000000000000E9     6.888559538427327E-4    7.012171051848818E-1
 9.500000000000000E9     4.128776622610597E-1    5.736745882970905E-1
 9.510000000000000E9     6.695040220728018E-1    2.267346761455704E-1
 9.520000000000000E9     6.797137450711250E-1   -2.047128574635811E-1
 9.530000000000000E9     4.385029970400944E-1   -5.613486053137045E-1
 9.540000000000000E9     3.737623171831023E-2   -7.102500936682674E-1
 9.550000000000000E9    -3.735512958108367E-1   -6.007308358349789E-1
 9.560000000000000E9    -6.508538370171640E-1   -2.782739072069635E-1
 9.570000000000000E9    -6.983926411087317E-1    1.382632230746590E-1
 9.580000000000000E9    -5.063785018151592E-1    5.071543161144259E-1
 9.590000000000000E9    -1.422433546550407E-1    7.050012549288571E-1
 9.600000000000000E9     2.691539599916228E-1    6.671676360211624E-1
 9.610000000000000E9     5.908905033901053E-1    4.170940723366376E-1
 9.620000000000000E9     7.224607281023337E-1    3.126548917482808E-2
 9.630000000000000E9     6.206817727148605E-1   -3.647027915548331E-1
 9.640000000000000E9     3.172646539396833E-1   -6.413450943883945E-1
 9.650000000000000E9    -8.910108257663144E-2   -7.063952755104539E-1
 9.660000000000000E9    -4.593685584640168E-1   -5.397487018829914E-1
 9.670000000000000E9    -6.780786291153591E-1   -1.988484327099865E-1
 9.680000000000000E9    -6.773438946886646E-1    2.030281172600255E-1
 9.690000000000000E9    -4.640825349895704E-1    5.378508057848034E-1
 9.700000000000000E9    -1.103472313683956E-1    7.066444934514829E-1
 9.710000000000000E9     2.781624933368169E-1    6.577989466701023E-1
 9.720000000000000E9     5.831994230928521E-1    4.136954074722239E-1
 9.730000000000000E9     7.154874453441188E-1    4.591450444546146E-2
 9.740000000000000E9     6.329732467104485E-1   -3.368562386722805E-1
 9.750000000000000E9     3.578531545948838E-1   -6.163533572186595E-1
 9.760000000000000E9    -3.116509595459957E-2   -7.069023599097907E-1
 9.770000000000000E9    -4.059442677412149E-1   -5.751236069197945E-1
 9.780000000000000E9    -6.495822395928438E-1   -2.660455391510014E-1
 9.790000000000000E9    -6.903643689243314E-1    1.226887207001410E-1
 9.800000000000000E9    -5.177826642604276E-1    4.729336849295031E-1
 9.810000000000000E9    -1.903103805856251E-1    6.811292667381684E-1
 9.820000000000000E9     1.978963059986385E-1    6.845277781059419E-1
 9.830000000000000E9     5.290138204134218E-1    4.803842142409748E-1
 9.840000000000000E9     7.015104626116422E-1    1.302702408334830E-1
 9.850000000000000E9     6.620026431223949E-1   -2.607452231530579E-1
 9.860000000000000E9     4.219817373689833E-1   -5.724545076122295E-1
 9.870000000000000E9     4.901758161888507E-2   -7.066053433438668E-1
 9.880000000000000E9    -3.402370232913489E-1   -6.172647072458183E-1
 9.890000000000000E9    -6.203279482935998E-1   -3.302015901129919E-1
 9.900000000000000E9    -7.005843149665821E-1    6.189533136614934E-2
 9.910000000000000E9    -5.548620719576696E-1    4.318605856623580E-1
 9.920000000000000E9    -2.315661411668754E-1    6.630240485885840E-1
 9.930000000000000E9     1.649262483790699E-1    6.836187937127788E-1
 9.940000000000000E9     5.106228698433984E-1    4.879889495703004E-1
 9.950000000000000E9     6.961392366674073E-1    1.356213961022656E-1
 9.960000000000000E9     6.539052188518677E-1   -2.671170744568232E-1
 9.970000000000000E9     3.944885585347959E-1   -5.843105907759415E-1
 9.980000000000000E9    -8.268924892293626E-4   -7.045969547723513E-1
 9.990000000000000E9    -3.972865354201805E-1   -5.815899769668258E-1
 1.000000000000000E+10  -6.560155718236379E-1   -2.549559388181123E-1
 1.001000000000000E+10  -6.853019974713881E-1    1.630051560675770E-1
 1.002000000000000E+10  -4.726144420139830E-1    5.270095785073268E-1
 1.003000000000000E+10  -8.772718033167880E-2    7.056067530890471E-1
 1.004000000000000E+10   3.333992196284145E-1    6.282503556833569E-1
 1.005000000000000E+10   6.335845833981378E-1    3.178032117694825E-1
 1.006000000000000E+10   7.013553066963402E-1   -1.099423189460615E-1
 1.007000000000000E+10   5.028882187653405E-1   -4.982094988571272E-1
 1.008000000000000E+10   1.094487745281394E-1   -6.966034429748094E-1
 1.009000000000000E+10  -3.308562281576930E-1   -6.216021337383421E-1
 1.010000000000000E+10  -6.412778256788413E-1   -2.943345925100507E-1
 1.011000000000000E+10  -6.912939675986710E-1    1.504704819198361E-1
 1.012000000000000E+10  -4.611665552813369E-1    5.373012621524245E-1
 1.013000000000000E+10  -4.461437116991294E-2    7.082400919670701E-1
 1.014000000000000E+10   3.905442841002749E-1    5.967321149700610E-1
 1.015000000000000E+10   6.723528256111979E-1    2.476744446933800E-1
 1.016000000000000E+10   6.848120226932330E-1   -2.054542504981976E-1
 1.017000000000000E+10   4.221956572066684E-1   -5.775301831792232E-1
 1.018000000000000E+10  -1.196807087467586E-2   -7.159662099132768E-1
 1.019000000000000E+10  -4.387785326219441E-1   -5.649475230974742E-1
 1.020000000000000E+10  -6.867827834206418E-1   -1.918953542526340E-1
 1.021000000000000E+10  -6.659629615599265E-1    2.544980605889930E-1
 1.022000000000000E+10  -3.922223570674961E-1    5.976930567656926E-1
 1.023000000000000E+10   2.524500092730614E-2    7.167486391889669E-1
 1.024000000000000E+10   4.330946256120933E-1    5.732533175812224E-1
 1.025000000000000E+10   6.840091210246358E-1    2.212757132212795E-1
 1.026000000000000E+10   6.903455842389460E-1   -2.088308574437114E-1
 1.027000000000000E+10   4.482476851179165E-1   -5.622580559510002E-1
 1.028000000000000E+10   4.950592938910655E-2   -7.135490065204103E-1
 1.029000000000000E+10  -3.640639989673025E-1   -6.133035404477006E-1
 1.030000000000000E+10  -6.488961330402945E-1   -2.980228273608754E-1
 1.031000000000000E+10  -7.034276111524813E-1    1.151682239982003E-1
 1.032000000000000E+10  -5.164538444536652E-1    4.878193504236359E-1
 1.033000000000000E+10  -1.552103421937473E-1    6.916603380207333E-1
 1.034000000000000E+10   2.540831867316692E-1    6.626641085533729E-1
 1.035000000000000E+10   5.776658963481901E-1    4.169242680558686E-1
 1.036000000000000E+10   7.099710545623201E-1    3.034936826828995E-2
 1.037000000000000E+10   6.104465886603467E-1   -3.660492908441941E-1
 1.038000000000000E+10   3.100128301065267E-1   -6.436636774030413E-1
 1.039000000000000E+10  -9.303396049863123E-2   -7.096461376732589E-1
 1.040000000000000E+10  -4.628329334132656E-1   -5.429852982219189E-1
 1.041000000000000E+10  -6.846134226150898E-1   -2.003295800246877E-1
 1.042000000000000E+10  -6.836027347107080E-1    2.023227187592319E-1
 1.043000000000000E+10  -4.681749656727610E-1    5.360139261869866E-1
 1.044000000000000E+10  -1.099823090430165E-1    7.005673332662820E-1
 1.045000000000000E+10   2.803513853277740E-1    6.476523781686507E-1
 1.046000000000000E+10   5.846171036230280E-1    3.988123005533509E-1
 1.047000000000000E+10   7.071157720958237E-1    2.377120300475650E-2
 1.048000000000000E+10   6.058463311864452E-1   -3.597521130827850E-1
 1.049000000000000E+10   3.111884727239684E-1   -6.283270462878761E-1
 1.050000000000000E+10  -8.388813885207269E-2   -6.954397513136036E-1
 1.051000000000000E+10  -4.457287438565268E-1   -5.387031270434847E-1
 1.052000000000000E+10  -6.645793199152654E-1   -2.102205101524190E-1
 1.053000000000000E+10  -6.706719201279459E-1    1.852597139098537E-1
 1.054000000000000E+10  -4.626690908790157E-1    5.204272200634202E-1
 1.055000000000000E+10  -1.110722220281507E-1    6.894925461197521E-1
 1.056000000000000E+10   2.723600359134385E-1    6.399084142353992E-1
 1.057000000000000E+10   5.693747013595757E-1    3.947734429754228E-1
 1.058000000000000E+10   6.922718814095903E-1    2.997153278807425E-2
 1.059000000000000E+10   6.023794423905320E-1   -3.468383434467335E-1
 1.060000000000000E+10   3.200794069130475E-1   -6.179935384839200E-1
 1.061000000000000E+10  -7.272497426375849E-2   -6.911567145417796E-1
 1.062000000000000E+10  -4.445505756605035E-1   -5.348304271400043E-1
 1.063000000000000E+10  -6.667019849399221E-1   -1.981484810813260E-1
 1.064000000000000E+10  -6.640874568520460E-1    2.023619006425431E-1
 1.065000000000000E+10  -4.425757262139182E-1    5.319544173008062E-1
 1.066000000000000E+10  -7.864922651335629E-2    6.894853260057399E-1
 1.067000000000000E+10   3.081410719899612E-1    6.259128622466706E-1
 1.068000000000000E+10   5.981187443714531E-1    3.635978925507590E-1
 1.069000000000000E+10   6.993866391306806E-1   -1.614772149049966E-2
 1.070000000000000E+10   5.762078361283605E-1   -3.934308819743861E-1
 1.071000000000000E+10   2.684214493519618E-1   -6.451867374135566E-1
 1.072000000000000E+10  -1.312201415250349E-1   -6.819291531619222E-1
 1.073000000000000E+10  -4.869547250028453E-1   -4.857903310228147E-1
 1.074000000000000E+10  -6.728677079365133E-1   -1.189698499531666E-1
 1.075000000000000E+10  -6.181857065325610E-1    2.912301160002008E-1
 1.076000000000000E+10  -3.409352978629347E-1    5.914853429664957E-1
 1.077000000000000E+10   5.933253546292546E-2    6.793361909165845E-1
 1.078000000000000E+10   4.363204158419329E-1    5.254207457282941E-1
 1.079000000000000E+10   6.600194147446967E-1    1.900402555401292E-1
 1.080000000000000E+10   6.592348255827849E-1   -2.108516807962613E-1
 1.081000000000000E+10   4.276807143332832E-1   -5.441437518715574E-1
 1.082000000000000E+10   4.580203613837682E-2   -6.926227753386737E-1
 1.083000000000000E+10  -3.568244350555535E-1   -5.968063164522690E-1
 1.084000000000000E+10  -6.316383259692946E-1   -2.853203485365550E-1
 1.085000000000000E+10  -6.759820667370732E-1    1.263302162577104E-1
 1.086000000000000E+10  -4.759126412529881E-1    4.942653331938133E-1
 1.087000000000000E+10  -1.054752211364062E-1    6.793979683894741E-1
 1.088000000000000E+10   3.017842584360246E-1    6.209359938979910E-1
 1.089000000000000E+10   6.036166060944387E-1    3.404901343781050E-1
 1.090000000000000E+10   6.920946834751233E-1   -6.476613499165668E-2
 1.091000000000000E+10   5.397338548120851E-1   -4.487995840473584E-1
 1.092000000000000E+10   1.907124838309937E-1   -6.756331951771749E-1
 1.093000000000000E+10  -2.291096490218593E-1   -6.585572872638709E-1
 1.094000000000000E+10  -5.657044786004440E-1   -4.005221885000293E-1
 1.095000000000000E+10  -6.938567659325769E-1    6.837615138598486E-3
 1.096000000000000E+10  -5.616553405982900E-1    4.053977062700742E-1
 1.097000000000000E+10  -2.228137517960525E-1    6.562728074336466E-1
 1.098000000000000E+10   1.984361484076613E-1    6.674326810885758E-1
 1.099000000000000E+10   5.484760265309911E-1    4.383578015596572E-1
 1.100000000000000E+10   7.063404456452959E-1    5.546127962952339E-2
 1.101000000000000E+10   6.164657827763641E-1   -3.519068046409727E-1
 1.102000000000000E+10   3.148653748875029E-1   -6.396249224279336E-1
 1.103000000000000E+10  -9.848762988637055E-2   -7.097906012690030E-1
 1.104000000000000E+10  -4.815918321063604E-1   -5.315130584152753E-1
 1.105000000000000E+10  -6.931077121455579E-1   -1.649791809196000E-1
 1.106000000000000E+10  -6.607138636743484E-1    2.625167254440288E-1
 1.107000000000000E+10  -3.946179289877162E-1    5.898334449378067E-1
 1.108000000000000E+10   1.303127572185637E-3    7.090830849398284E-1
 1.109000000000000E+10   3.922729659075697E-1    5.915743055316359E-1
 1.110000000000000E+10   6.548717131001746E-1    2.795619557901523E-1
 1.111000000000000E+10   7.086714040490057E-1   -1.209918339023909E-1
 1.112000000000000E+10   5.325459051865625E-1   -4.861891838194429E-1
 1.113000000000000E+10   1.796603946091783E-1   -6.953436858223413E-1
 1.114000000000000E+10  -2.353315625219824E-1   -6.743986604954998E-1
 1.115000000000000E+10  -5.735427909110029E-1   -4.259013992509592E-1
 1.116000000000000E+10  -7.085849742315240E-1   -3.534620198555453E-2
 1.117000000000000E+10  -6.032150097886583E-1    3.644749026061335E-1
 1.118000000000000E+10  -2.942483723580405E-1    6.386413017774479E-1
 1.119000000000000E+10   1.123626517373779E-1    6.961810385410628E-1
 1.120000000000000E+10   4.791280752324359E-1    5.223960215453550E-1
 1.121000000000000E+10   6.871919279725415E-1    1.757049496014869E-1
 1.122000000000000E+10   6.722564828335356E-1   -2.289000030615163E-1
 1.123000000000000E+10   4.378986202867040E-1   -5.608494874855224E-1
 1.124000000000000E+10   5.622366660378005E-2   -7.094319381175905E-1
 1.125000000000000E+10  -3.468874558977570E-1   -6.170804444663558E-1
 1.126000000000000E+10  -6.353470100611011E-1   -3.081873679233110E-1
 1.127000000000000E+10  -6.968944202378294E-1    1.109704254925325E-1
 1.128000000000000E+10  -5.097171044391220E-1    4.857600892374768E-1
 1.129000000000000E+10  -1.506839645635880E-1    6.852303366929969E-1
 1.130000000000000E+10   2.520358992292616E-1    6.534323541999938E-1
 1.131000000000000E+10   5.732634889137187E-1    4.127707231406751E-1
 1.132000000000000E+10   7.095981395666777E-1    4.003267034957909E-2
 1.133000000000000E+10   6.172757992254253E-1   -3.494708916193317E-1
 1.134000000000000E+10   3.186320591090385E-1   -6.270288742749843E-1
 1.135000000000000E+10  -9.010263228004761E-2   -6.924085246209797E-1
 1.136000000000000E+10  -4.602137807789307E-1   -5.164903100537900E-1
 1.137000000000000E+10  -6.641439681989814E-1   -1.595847681770754E-1
 1.138000000000000E+10  -6.297294079942254E-1    2.487758131243470E-1
 1.139000000000000E+10  -3.735357594820343E-1    5.648746802867333E-1
 1.140000000000000E+10   1.115897569864748E-2    6.826711821246590E-1
 1.141000000000000E+10   3.891752673137552E-1    5.658569519515063E-1
 1.142000000000000E+10   6.405784156906815E-1    2.606988359249878E-1
 1.143000000000000E+10   6.827356561290945E-1   -1.317997387352697E-1
 1.144000000000000E+10   5.019707082077338E-1   -4.823549843414822E-1
 1.145000000000000E+10   1.562356780691564E-1   -6.745991691243839E-1
 1.146000000000000E+10  -2.464024878815539E-1   -6.391448218178685E-1
 1.147000000000000E+10  -5.618748607413541E-1   -3.840402209554178E-1
 1.148000000000000E+10  -6.776502429624878E-1    4.483169764142690E-3
 1.149000000000000E+10  -5.520775878813143E-1    3.871145755652817E-1
 1.150000000000000E+10  -2.349816947646998E-1    6.281509045282432E-1
 1.151000000000000E+10   1.635944424748181E-1    6.568519120216421E-1
 1.152000000000000E+10   5.018282305841842E-1    4.641462076637508E-1
 1.153000000000000E+10   6.761566756848807E-1    1.210106806767852E-1
 1.154000000000000E+10   6.332121066897552E-1   -2.648061144646637E-1
 1.155000000000000E+10   3.800691270476181E-1   -5.694599173411136E-1
 1.156000000000000E+10   3.190358256987567E-3   -6.834892904572318E-1
 1.157000000000000E+10  -3.762586853668081E-1   -5.633248981519103E-1
 1.158000000000000E+10  -6.222904223847483E-1   -2.488230778665207E-1
 1.159000000000000E+10  -6.505138530159259E-1    1.487183950139466E-1
 1.160000000000000E+10  -4.545394511945534E-1    4.945369154878334E-1
 1.161000000000000E+10  -1.039135233573251E-1    6.651371890044304E-1
 1.162000000000000E+10   2.804070367787326E-1    6.172583117244506E-1
 1.163000000000000E+10   5.755575513823379E-1    3.701715634242847E-1
 1.164000000000000E+10   6.898451760110719E-1    4.930049745443307E-3
 1.165000000000000E+10   5.894652051244329E-1   -3.630911660714559E-1
 1.166000000000000E+10   2.987245313904450E-1   -6.188133181672522E-1
 1.167000000000000E+10  -8.696858447145844E-2   -6.789266641510064E-1
 1.168000000000000E+10  -4.456778646303630E-1   -5.189276989144094E-1
 1.169000000000000E+10  -6.571047048508333E-1   -1.853543500393544E-1
 1.170000000000000E+10  -6.445378585100811E-1    2.108813478762334E-1
 1.171000000000000E+10  -4.161487338640565E-1    5.420105682033388E-1
 1.172000000000000E+10  -4.686602801045209E-2    6.900565505053571E-1
 1.173000000000000E+10   3.370566564969195E-1    6.098663187124246E-1
 1.174000000000000E+10   6.112014281431670E-1    3.339976975423528E-1
 1.175000000000000E+10   6.913611842711035E-1   -4.781459146954941E-2
 1.176000000000000E+10   5.602452309535690E-1   -4.111775584229498E-1
 1.177000000000000E+10   2.492637808890641E-1   -6.477003443774134E-1
 1.178000000000000E+10  -1.468157087018508E-1   -6.732833062753379E-1
 1.179000000000000E+10  -4.934273285581516E-1   -4.715024435519016E-1
 1.180000000000000E+10  -6.698188577800360E-1   -1.108370310061900E-1
 1.181000000000000E+10  -6.149602171683421E-1    2.822205899347859E-1
 1.182000000000000E+10  -3.555590672280672E-1    5.768715977204765E-1
 1.183000000000000E+10   1.853418265119259E-2    6.832275269668707E-1
 1.184000000000000E+10   3.888053615050971E-1    5.726029418758297E-1
 1.185000000000000E+10   6.402144162782171E-1    2.821679121257686E-1
 1.186000000000000E+10   6.910893350215096E-1   -9.984017476403234E-2
 1.187000000000000E+10   5.279938907259520E-1   -4.530274184347168E-1
 1.188000000000000E+10   1.976120102324111E-1   -6.640882220463854E-1
 1.189000000000000E+10  -1.974900673061647E-1   -6.599586171024562E-1
 1.190000000000000E+10  -5.262741667714864E-1   -4.337395299053869E-1
 1.191000000000000E+10  -6.732666506745192E-1   -5.274214190477942E-2
 1.192000000000000E+10  -5.819698171355948E-1    3.450792948861751E-1
 1.193000000000000E+10  -2.835968124894354E-1    6.196543958643032E-1
 1.194000000000000E+10   1.142491348977754E-1    6.762455029371046E-1
 1.195000000000000E+10   4.734088164131683E-1    5.000683294330118E-1
 1.196000000000000E+10   6.778028538392082E-1    1.575008170782535E-1
 1.197000000000000E+10   6.576913155185948E-1   -2.404588388516280E-1
 1.198000000000000E+10   4.172576287285057E-1   -5.626622647750794E-1
 1.199000000000000E+10   3.142111757151787E-2   -6.962291235839611E-1
 1.200000000000000E+10  -3.679906090332801E-1   -5.857836654318376E-1
 1.201000000000000E+10  -6.332518880834920E-1   -2.697394858710410E-1
 1.202000000000000E+10  -6.682872291936902E-1    1.426746710929011E-1
 1.203000000000000E+10  -4.627584156062372E-1    5.000157614606833E-1
 1.204000000000000E+10  -9.362758546515225E-2    6.783413815407784E-1
 1.205000000000000E+10   3.105438613411936E-1    6.185407460757565E-1
 1.206000000000000E+10   6.049261012411467E-1    3.408861371119954E-1
 1.207000000000000E+10   6.939312911727952E-1   -5.962632635207546E-2
 1.208000000000000E+10   5.392517475369515E-1   -4.432719147175017E-1
 1.209000000000000E+10   1.934376416662007E-1   -6.700830481304146E-1
 1.210000000000000E+10  -2.187420028382865E-1   -6.574917470201809E-1
 1.211000000000000E+10  -5.546697966161159E-1   -4.037569446667273E-1
 1.212000000000000E+10  -6.856322323867607E-1   -6.286043061202003E-3
 1.213000000000000E+10  -5.672386101345782E-1    3.910942183229267E-1
 1.214000000000000E+10  -2.452751781247807E-1    6.461177146129732E-1
 1.215000000000000E+10   1.613016401610373E-1    6.703975325228932E-1
 1.216000000000000E+10   5.130696681670622E-1    4.668070330955933E-1
 1.217000000000000E+10   6.859044318975452E-1    1.041930629152134E-1
 1.218000000000000E+10   6.254224631978266E-1   -2.894540498060238E-1
 1.219000000000000E+10   3.552980869649747E-1   -5.809884163899488E-1
 1.220000000000000E+10  -3.294850991180729E-2   -6.712366871518487E-1
 1.221000000000000E+10  -4.019920944263656E-1   -5.299502314841280E-1
 1.222000000000000E+10  -6.264761784082651E-1   -2.029899061764795E-1
 1.223000000000000E+10  -6.253708100304483E-1    1.935960797908114E-1
 1.224000000000000E+10  -4.014319274571219E-1    5.182873815540868E-1
 1.225000000000000E+10  -3.701676469231761E-2    6.600295342233043E-1
 1.226000000000000E+10   3.374061958375449E-1    5.673783622549002E-1
 1.227000000000000E+10   5.960742442309505E-1    2.836999857276206E-1
 1.228000000000000E+10   6.546019921310128E-1   -9.368990708592791E-2
 1.229000000000000E+10   4.958190641968084E-1   -4.378170405697444E-1
 1.230000000000000E+10   1.757884639797384E-1   -6.342067037074189E-1
 1.231000000000000E+10  -2.037080007877611E-1   -6.168729660748092E-1
 1.232000000000000E+10  -5.089192198524810E-1   -3.960894974813229E-1
 1.233000000000000E+10  -6.428178145209625E-1   -4.715713640794875E-2
 1.234000000000000E+10  -5.626878136977890E-1    3.172414972631791E-1
 1.235000000000000E+10  -2.915050112876768E-1    5.760997866493909E-1
 1.236000000000000E+10   7.954596033541733E-2    6.460460722811189E-1
 1.237000000000000E+10   4.267658311004501E-1    4.974532088615649E-1
 1.238000000000000E+10   6.310725051983993E-1    1.810210860238838E-1
 1.239000000000000E+10   6.249406379943407E-1   -1.945727688509724E-1
 1.240000000000000E+10   4.121891890014829E-1   -5.048080904252187E-1
 1.241000000000000E+10   6.848853128673991E-2   -6.477870465078945E-1
 1.242000000000000E+10  -2.969110454785883E-1   -5.779608877870062E-1
 1.243000000000000E+10  -5.643704723473641E-1   -3.188514941199421E-1
 1.244000000000000E+10  -6.469344993902574E-1    4.417513696452534E-2
 1.245000000000000E+10  -5.196300571587924E-1    3.929862322340413E-1
 1.246000000000000E+10  -2.266683120833858E-1    6.106814713315167E-1
 1.247000000000000E+10   1.393797520799452E-1    6.341576222782067E-1
 1.248000000000000E+10   4.620657375467096E-1    4.564676098340540E-1
 1.249000000000000E+10   6.392233385800610E-1    1.324608665603975E-1
 1.250000000000000E+10   6.121362843885896E-1   -2.353628790962487E-1
