#  HZ   S   RI   R     50.00 
! Rohde & Schwarz Vector Network Analyzer 
! Rohde-Schwarz,ZNA43-4Port,1332450044101932,2.92
! Created: UTC 6/2/2026, 7:39:56 AM
! freq[Hz]                re:S11                  im:S11
 8.000000000000000E9     3.479516747892870E-2    7.273556942228643E-1
 8.010000000000000E9     5.112035445629359E-1    5.201490557012025E-1
 8.020000000000000E9     7.295008730376991E-1    5.139611721599913E-2
 8.030000000000000E9     5.849203695116326E-1   -4.390669721255085E-1
 8.040000000000000E9     1.537368201396172E-1   -7.115274602450922E-1
 8.050000000000000E9    -3.538879424730432E-1   -6.298162793863429E-1
 8.060000000000000E9    -6.852377531366350E-1   -2.455826746747999E-1
 8.070000000000000E9    -6.836942987577777E-1    2.582047517788529E-1
 8.080000000000000E9    -3.622531257092986E-1    6.346602171581983E-1
 8.090000000000000E9     1.133301748692548E-1    7.228227655781646E-1
 8.100000000000000E9     5.348263749356182E-1    5.060642188603093E-1
 8.110000000000000E9     7.322944938465036E-1    8.766841686860709E-2
 8.120000000000000E9     6.420504657657752E-1   -3.634994438674431E-1
 8.130000000000000E9     3.035387126562773E-1   -6.729169217230118E-1
 8.140000000000000E9    -1.491644251145982E-1   -7.234307609649544E-1
 8.150000000000000E9    -5.413979760234174E-1   -5.022369286917714E-1
 8.160000000000000E9    -7.280583603899383E-1   -8.717502720549988E-2
 8.170000000000000E9    -6.453697880413996E-1    3.527163016087704E-1
 8.180000000000000E9    -3.342498852919385E-1    6.625928063008838E-1
 8.190000000000000E9     9.090854072542871E-2    7.417599482158527E-1
 8.200000000000000E9     4.834123336522121E-1    5.696048924931348E-1
 8.210000000000000E9     7.214651389236231E-1    2.089858850008000E-1
 8.220000000000000E9     7.218222201658898E-1   -2.186319720474981E-1
 8.230000000000000E9     4.868984887874315E-1   -5.735721010103151E-1
 8.240000000000000E9     9.285141700936757E-2   -7.405867075968455E-1
 8.250000000000000E9    -3.342880338947677E-1   -6.613364557180289E-1
 8.260000000000000E9    -6.456229638371128E-1   -3.680580005592616E-1
 8.270000000000000E9    -7.431170283718401E-1    5.282240814807425E-2
 8.280000000000000E9    -5.862830250291664E-1    4.580982899690129E-1
 8.290000000000000E9    -2.313148274301185E-1    7.021403721247360E-1
 8.300000000000000E9     1.814355623317923E-1    7.119695090413006E-1
 8.310000000000000E9     5.373180874210696E-1    5.126257740550263E-1
 8.320000000000000E9     7.314637101488785E-1    1.454907841476163E-1
 8.330000000000000E9     6.969763417448426E-1   -2.716146344129056E-1
 8.340000000000000E9     4.391103173011237E-1   -6.074076091242577E-1
 8.350000000000000E9     3.576986684911476E-2   -7.469001436722399E-1
 8.360000000000000E9    -3.836075156744728E-1   -6.334768938958122E-1
 8.370000000000000E9    -6.711724845649861E-1   -3.027241743764501E-1
 8.380000000000000E9    -7.249595352054654E-1    1.308439394259883E-1
 8.390000000000000E9    -5.294496632688285E-1    5.169483608107157E-1
 8.400000000000000E9    -1.550608623819575E-1    7.262621991733365E-1
 8.410000000000000E9     2.769080385156258E-1    6.932703430990667E-1
 8.420000000000000E9     6.183163364577091E-1    4.320690381686401E-1
 8.430000000000000E9     7.592190130603925E-1    2.778140011766399E-2
 8.440000000000000E9     6.524850420609298E-1   -3.876518953577642E-1
 8.450000000000000E9     3.295570290826449E-1   -6.769807207374149E-1
 8.460000000000000E9    -1.019985346146176E-1   -7.418431498389207E-1
 8.470000000000000E9    -4.978148830554817E-1   -5.518367280605143E-1
 8.480000000000000E9    -7.180080665568768E-1   -1.671682460302192E-1
 8.490000000000000E9    -6.778955652703710E-1    2.780585843900300E-1
 8.500000000000000E9    -3.889755271987193E-1    6.202595624014580E-1
 8.510000000000000E9     3.601433649138273E-2    7.350885832539883E-1
 8.520000000000000E9     4.470376454820066E-1    5.859248176801126E-1
 8.530000000000000E9     7.002577280557518E-1    2.336394054179302E-1
 8.540000000000000E9     7.132267863275186E-1   -2.000282108141960E-1
 8.550000000000000E9     4.769901463775429E-1   -5.684462814944387E-1
 8.560000000000000E9     6.789092631522335E-2   -7.324551843573387E-1
 8.570000000000000E9    -3.690546791305203E-1   -6.284176079149782E-1
 8.580000000000000E9    -6.644331294437132E-1   -2.872701833729527E-1
 8.590000000000000E9    -7.040692777382198E-1    1.582929210811258E-1
 8.600000000000000E9    -4.790673106238360E-1    5.391088482673339E-1
 8.610000000000000E9    -6.939349284749705E-2    7.206138545154996E-1
 8.620000000000000E9     3.640582114666403E-1    6.358792454888805E-1
 8.630000000000000E9     6.670172287750553E-1    3.214020790932963E-1
 8.640000000000000E9     7.338183809060700E-1   -1.074558277800746E-1
 8.650000000000000E9     5.431022509762959E-1   -4.974170947510294E-1
 8.660000000000000E9     1.660708945992061E-1   -7.144803040792367E-1
 8.670000000000000E9    -2.666230114652420E-1   -6.767391630940973E-1
 8.680000000000000E9    -6.011369424456026E-1   -3.971667890603078E-1
 8.690000000000000E9    -7.157497837540584E-1    2.739909903393910E-2
 8.700000000000000E9    -5.635639321122439E-1    4.437287588470575E-1
 8.710000000000000E9    -2.038570167572576E-1    6.925189336477069E-1
 8.720000000000000E9     2.335300122765478E-1    6.879967362376102E-1
 8.730000000000000E9     5.876108291946223E-1    4.350248927397781E-1
 8.740000000000000E9     7.352480634279752E-1    2.884339729381488E-2
 8.750000000000000E9     6.295141085055103E-1   -3.887161372919974E-1
 8.760000000000000E9     3.053958867581366E-1   -6.687532201911105E-1
 8.770000000000000E9    -1.257598588755889E-1   -7.213584028920692E-1
 8.780000000000000E9    -5.156861302747481E-1   -5.188178756669033E-1
 8.790000000000000E9    -7.198692280457325E-1   -1.292351135697111E-1
 8.800000000000000E9    -6.642436133194729E-1    3.033274970922595E-1
 8.810000000000000E9    -3.689780027734959E-1    6.307443350614519E-1
 8.820000000000000E9     5.379510254019538E-2    7.351629526283460E-1
 8.830000000000000E9     4.595588454448805E-1    5.873939439311667E-1
 8.840000000000000E9     7.123631489854785E-1    2.379579672772802E-1
 8.850000000000000E9     7.235436991980302E-1   -1.946819727866771E-1
 8.860000000000000E9     4.932266677410828E-1   -5.655972655625989E-1
 8.870000000000000E9     9.095305587981918E-2   -7.413173772443132E-1
 8.880000000000000E9    -3.421549636138643E-1   -6.555480958033300E-1
 8.890000000000000E9    -6.502496752459481E-1   -3.348864452539478E-1
 8.900000000000000E9    -7.184359697053804E-1    1.075513930920825E-1
 8.910000000000000E9    -5.218099363323270E-1    5.032866051578245E-1
 8.920000000000000E9    -1.347823721399692E-1    7.128172033644745E-1
 8.930000000000000E9     3.001876785615769E-1    6.630939487528723E-1
 8.940000000000000E9     6.276226528047395E-1    3.763024194887962E-1
 8.950000000000000E9     7.346603477111805E-1   -4.407145959351276E-2
 8.960000000000000E9     5.773760464013488E-1   -4.473774536135187E-1
 8.970000000000000E9     2.147845943890490E-1   -6.918408703718195E-1
 8.980000000000000E9    -2.264422657959771E-1   -6.843584416000283E-1
 8.990000000000000E9    -5.823933761747037E-1   -4.204488619989303E-1
 9.000000000000000E9    -7.138573061863819E-1    1.837875076902890E-3
 9.010000000000000E9    -5.695079847981486E-1    4.255551696009623E-1
 9.020000000000000E9    -2.097212344576898E-1    6.820822218630610E-1
 9.030000000000000E9     2.250152763102113E-1    6.828391034996969E-1
 9.040000000000000E9     5.775528974788298E-1    4.345203032321649E-1
 9.050000000000000E9     7.217294147937745E-1    2.629694615680101E-2
 9.060000000000000E9     6.094567171279481E-1   -3.938391525651964E-1
 9.070000000000000E9     2.700630699244670E-1   -6.715783145011959E-1
 9.080000000000000E9    -1.700259521661365E-1   -6.962874453452983E-1
 9.090000000000000E9    -5.414312584117381E-1   -4.573320652189019E-1
 9.100000000000000E9    -7.040711199472566E-1   -4.563136318609175E-2
 9.110000000000000E9    -5.960435128347100E-1    3.790966602749670E-1
 9.120000000000000E9    -2.614881109991736E-1    6.595794074857622E-1
 9.130000000000000E9     1.725337680817468E-1    6.934477472858827E-1
 9.140000000000000E9     5.449009771671398E-1    4.713837132707620E-1
 9.150000000000000E9     7.217297230676478E-1    7.790782533320138E-2
 9.160000000000000E9     6.360872310930256E-1   -3.425376001401477E-1
 9.170000000000000E9     3.245016273084312E-1   -6.401640630758693E-1
 9.180000000000000E9    -1.011721884807175E-1   -7.082601815171142E-1
 9.190000000000000E9    -4.883510320599256E-1   -5.225269951476459E-1
 9.200000000000000E9    -6.976865720876801E-1   -1.509792667210717E-1
 9.210000000000000E9    -6.585883223548059E-1    2.770043010767459E-1
 9.220000000000000E9    -3.874689974251109E-1    6.065480944357489E-1
 9.230000000000000E9     1.757659425761347E-2    7.265642236922182E-1
 9.240000000000000E9     4.175452635578616E-1    6.018296155981937E-1
 9.250000000000000E9     6.804685716601823E-1    2.771960369377783E-1
 9.260000000000000E9     7.241695471511741E-1   -1.391611113303750E-1
 9.270000000000000E9     5.310206236560824E-1   -5.107304377969246E-1
 9.280000000000000E9     1.632966528276012E-1   -7.132074300355108E-1
 9.290000000000000E9    -2.549563188955686E-1   -6.773999401763970E-1
 9.300000000000000E9    -5.833211280283241E-1   -4.176313802124146E-1
 9.310000000000000E9    -7.133113011842855E-1   -2.604119211986080E-2
 9.320000000000000E9    -6.100348820097868E-1    3.690665106329062E-1
 9.330000000000000E9    -3.108824740295620E-1    6.450989756666680E-1
 9.340000000000000E9     9.021612889791614E-2    7.163915879053656E-1
 9.350000000000000E9     4.657080370400713E-1    5.597573038048037E-1
 9.360000000000000E9     6.924110925647329E-1    2.313246128607530E-1
 9.370000000000000E9     7.066793075140765E-1   -1.711044218617677E-1
 9.380000000000000E9     5.035811098174163E-1   -5.216364061113702E-1
 9.390000000000000E9     1.454999297634217E-1   -7.111013525745395E-1
 9.400000000000000E9    -2.564050246230006E-1   -6.790866557792667E-1
 9.410000000000000E9    -5.791496868930415E-1   -4.306851540515445E-1
 9.420000000000000E9    -7.189459624643881E-1   -4.792939576867860E-2
 9.430000000000000E9    -6.323616264876699E-1    3.486963501269921E-1
 9.440000000000000E9    -3.494071422172685E-1    6.353718249543249E-1
 9.450000000000000E9     3.931213363707042E-2    7.269439248492627E-1
 9.460000000000000E9     4.213120789239231E-1    5.978895865025714E-1
 9.470000000000000E9     6.760977596411272E-1    2.879775965568480E-1
 9.480000000000000E9     7.285469729597137E-1   -1.099652916889785E-1
 9.490000000000000E9     5.605651307052615E-1   -4.770415049186912E-1
 9.500000000000000E9     2.197304719484623E-1   -6.991861421384795E-1
 9.510000000000000E9    -1.916819832655816E-1   -7.083312185607447E-1
 9.520000000000000E9    -5.411721325185158E-1   -4.934798172287735E-1
 9.530000000000000E9    -7.183833520337005E-1   -1.253997440578571E-1
 9.540000000000000E9    -6.714834773936672E-1    2.803495427304156E-1
 9.550000000000000E9    -4.153759490328925E-1    6.012601981221215E-1
 9.560000000000000E9    -3.404202863077262E-2    7.346898542653979E-1
 9.570000000000000E9     3.625840852656141E-1    6.421176524844926E-1
 9.580000000000000E9     6.492001417676826E-1    3.470779550561244E-1
 9.590000000000000E9     7.312829797769203E-1   -5.891361826321059E-2
 9.600000000000000E9     5.803633585781813E-1   -4.470056911563661E-1
 9.610000000000000E9     2.393176327324390E-1   -6.874588104987981E-1
 9.620000000000000E9    -1.815531137138476E-1   -7.001366822519565E-1
 9.630000000000000E9    -5.409044814518598E-1   -4.763374577065526E-1
 9.640000000000000E9    -7.148802049543089E-1   -9.052632638141185E-2
 9.650000000000000E9    -6.446910935711050E-1    3.241447477759640E-1
 9.660000000000000E9    -3.540101085801199E-1    6.307670071401038E-1
 9.670000000000000E9     5.750950747834645E-2    7.239299101738244E-1
 9.680000000000000E9     4.507898724340784E-1    5.721195117993805E-1
 9.690000000000000E9     6.920160469779035E-1    2.244857298938094E-1
 9.700000000000000E9     6.930264683863701E-1   -2.025987940863079E-1
 9.710000000000000E9     4.464198560396127E-1   -5.623375447384673E-1
 9.720000000000000E9     3.423154351435370E-2   -7.125970410449243E-1
 9.730000000000000E9    -3.885367677294479E-1   -5.899818473762537E-1
 9.740000000000000E9    -6.564112374429946E-1   -2.403944632860144E-1
 9.750000000000000E9    -6.665169579174849E-1    1.999362918685386E-1
 9.760000000000000E9    -4.191843583759203E-1    5.562307538041693E-1
 9.770000000000000E9    -1.109467027459488E-2    6.974329994777224E-1
 9.780000000000000E9     4.037421573413229E-1    5.696277739657329E-1
 9.790000000000000E9     6.636568900963178E-1    2.173021002741058E-1
 9.800000000000000E9     6.613077986422429E-1   -2.229919627405111E-1
 9.810000000000000E9     3.908570531420428E-1   -5.699092477173119E-1
 9.820000000000000E9    -3.557542973884236E-2   -6.821502698021272E-1
 9.830000000000000E9    -4.426623345049191E-1   -5.138221403379926E-1
 9.840000000000000E9    -6.635484273526653E-1   -1.350813588484086E-1
 9.850000000000000E9    -6.094646391915524E-1    2.951981295850815E-1
 9.860000000000000E9    -3.090625020584625E-1    6.043381823377002E-1
 9.870000000000000E9     1.120331675960884E-1    6.730614012624675E-1
 9.880000000000000E9     4.876446359998702E-1    4.811195823424613E-1
 9.890000000000000E9     6.763295757915887E-1    1.077188596461850E-1
 9.900000000000000E9     6.094905700734147E-1   -3.039441564179592E-1
 9.910000000000000E9     3.162384897991113E-1   -6.027004335411246E-1
 9.920000000000000E9    -9.353413587347854E-2   -6.734165624245660E-1
 9.930000000000000E9    -4.647252839572754E-1   -4.925778674418359E-1
 9.940000000000000E9    -6.606006401584937E-1   -1.332332876630792E-1
 9.950000000000000E9    -6.169911324641525E-1    2.697137287766239E-1
 9.960000000000000E9    -3.588455027473818E-1    5.708852464202830E-1
 9.970000000000000E9     1.844352742480515E-2    6.738857481398065E-1
 9.980000000000000E9     3.869898187907319E-1    5.515362202034640E-1
 9.990000000000000E9     6.268914642941872E-1    2.475426025094049E-1
 1.000000000000000E+10   6.607844271632294E-1   -1.370483088431973E-1
 1.001000000000000E+10   4.783898374437059E-1   -4.702372075736451E-1
 1.002000000000000E+10   1.420657479062026E-1   -6.511756001484510E-1
 1.003000000000000E+10  -2.367678555037148E-1   -6.205429480204308E-1
 1.004000000000000E+10  -5.374715756346332E-1   -3.914824090120834E-1
 1.005000000000000E+10  -6.660454419289206E-1   -3.785777152324808E-2
 1.006000000000000E+10  -5.819121725282699E-1    3.278720382983181E-1
 1.007000000000000E+10  -3.158793303865004E-1    5.918961856039174E-1
 1.008000000000000E+10   4.804484544573569E-2    6.717471064660878E-1
 1.009000000000000E+10   3.951309717233354E-1    5.457971380150485E-1
 1.010000000000000E+10   6.208757767791387E-1    2.563866734157163E-1
 1.011000000000000E+10   6.621395244038242E-1   -1.131329240180901E-1
 1.012000000000000E+10   5.021322591786769E-1   -4.474658389770482E-1
 1.013000000000000E+10   1.885109048981643E-1   -6.453926220136847E-1
 1.014000000000000E+10  -1.833178769973582E-1   -6.444140177981327E-1
 1.015000000000000E+10  -4.972298077545818E-1   -4.438832033644984E-1
 1.016000000000000E+10  -6.603176843815896E-1   -1.098195294587606E-1
 1.017000000000000E+10  -6.193605123696252E-1    2.573445256978364E-1
 1.018000000000000E+10  -3.911692648665284E-1    5.454196228081272E-1
 1.019000000000000E+10  -4.591984713627302E-2    6.707707050050483E-1
 1.020000000000000E+10   3.157570224087904E-1    5.970714439828773E-1
 1.021000000000000E+10   5.828806137616230E-1    3.456454388452125E-1
 1.022000000000000E+10   6.781601922313595E-1   -1.245944839131687E-2
 1.023000000000000E+10   5.677106386771277E-1   -3.702834653916430E-1
 1.024000000000000E+10   2.818758540542561E-1   -6.164919410031062E-1
 1.025000000000000E+10  -9.251399193865742E-2   -6.734502855573823E-1
 1.026000000000000E+10  -4.354456481669135E-1   -5.161362942486212E-1
 1.027000000000000E+10  -6.426132014899660E-1   -2.006944254297863E-1
 1.028000000000000E+10  -6.508994175486578E-1    1.773724858734939E-1
 1.029000000000000E+10  -4.558465263576554E-1    5.016447377948350E-1
 1.030000000000000E+10  -1.181057659405543E-1    6.695325181228503E-1
 1.031000000000000E+10   2.608628451173234E-1    6.275954067904108E-1
 1.032000000000000E+10   5.587497278238106E-1    3.894785307472120E-1
 1.033000000000000E+10   6.831965288022012E-1    2.978499354462876E-2
 1.034000000000000E+10   5.951298999711041E-1   -3.413549816369602E-1
 1.035000000000000E+10   3.173653849872005E-1   -6.073188389916739E-1
 1.036000000000000E+10  -6.431687371047219E-2   -6.848563672585717E-1
 1.037000000000000E+10  -4.278171227670650E-1   -5.416370421755911E-1
 1.038000000000000E+10  -6.530082305288656E-1   -2.225133605082390E-1
 1.039000000000000E+10  -6.661003193610112E-1    1.666958857742399E-1
 1.040000000000000E+10  -4.655514384877732E-1    4.995840710860808E-1
 1.041000000000000E+10  -1.202328588691849E-1    6.724717104476773E-1
 1.042000000000000E+10   2.631122585938994E-1    6.293877348613730E-1
 1.043000000000000E+10   5.631649705915915E-1    3.823399271312734E-1
 1.044000000000000E+10   6.794931455169886E-1    6.635399547841946E-3
 1.045000000000000E+10   5.675963891211041E-1   -3.747730457175005E-1
 1.046000000000000E+10   2.605812476291052E-1   -6.273930013309068E-1
 1.047000000000000E+10  -1.387526307958804E-1   -6.622764070595030E-1
 1.048000000000000E+10  -4.895922439806834E-1   -4.657415220112600E-1
 1.049000000000000E+10  -6.697943677625507E-1   -1.064368295353480E-1
 1.050000000000000E+10  -6.172614199031854E-1    2.910826450856649E-1
 1.051000000000000E+10  -3.462455130780595E-1    5.862609364818800E-1
 1.052000000000000E+10   4.473909359143396E-2    6.805120750434993E-1
 1.053000000000000E+10   4.211975989232556E-1    5.391161595211363E-1
 1.054000000000000E+10   6.524811311678278E-1    2.111908618979173E-1
 1.055000000000000E+10   6.582422020346186E-1   -1.914935438017939E-1
 1.056000000000000E+10   4.297825270337932E-1   -5.343363234161210E-1
 1.057000000000000E+10   4.287797642154121E-2   -6.876795013353579E-1
 1.058000000000000E+10  -3.662666197072176E-1   -5.869266973707132E-1
 1.059000000000000E+10  -6.398120364958010E-1   -2.623623768541283E-1
 1.060000000000000E+10  -6.699161285925754E-1    1.605875419256505E-1
 1.061000000000000E+10  -4.549920751056598E-1    5.223798269444903E-1
 1.062000000000000E+10  -7.466917825985757E-2    6.905056287356909E-1
 1.063000000000000E+10   3.308467487534089E-1    6.118644533601972E-1
 1.064000000000000E+10   6.213160219357825E-1    3.168065177847501E-1
 1.065000000000000E+10   6.945602840370956E-1   -9.429748891031353E-2
 1.066000000000000E+10   5.204860297419301E-1   -4.731150101005719E-1
 1.067000000000000E+10   1.528549484481396E-1   -6.854192522232277E-1
 1.068000000000000E+10  -2.751261161699948E-1   -6.439036763322292E-1
 1.069000000000000E+10  -6.009388310690279E-1   -3.597240101357607E-1
 1.070000000000000E+10  -7.007104281928884E-1    6.044497515551236E-2
 1.071000000000000E+10  -5.319395031693692E-1    4.555411740290058E-1
 1.072000000000000E+10  -1.697012436293800E-1    6.822886982379952E-1
 1.073000000000000E+10   2.531079292843235E-1    6.630524891243008E-1
 1.074000000000000E+10   5.861999582702450E-1    4.109634318670438E-1
 1.075000000000000E+10   7.178641155536011E-1    1.965000687238265E-2
 1.076000000000000E+10   6.091462937430987E-1   -3.837363992779393E-1
 1.077000000000000E+10   2.974196112893613E-1   -6.582219085490600E-1
 1.078000000000000E+10  -1.151194473856171E-1   -7.141875746204446E-1
 1.079000000000000E+10  -4.914204645272867E-1   -5.275833204887304E-1
 1.080000000000000E+10  -6.969519600991282E-1   -1.576651555226795E-1
 1.081000000000000E+10  -6.643590475174389E-1    2.639579386846077E-1
 1.082000000000000E+10  -3.998251297786908E-1    5.896251034728174E-1
 1.083000000000000E+10  -3.277433184901576E-3    7.091385277847653E-1
 1.084000000000000E+10   3.897418623788830E-1    5.917743192318871E-1
 1.085000000000000E+10   6.551910992561020E-1    2.799389046274888E-1
 1.086000000000000E+10   7.049006956304594E-1   -1.206671826895759E-1
 1.087000000000000E+10   5.262768385978041E-1   -4.851810347825820E-1
 1.088000000000000E+10   1.741083290122392E-1   -6.933735445140020E-1
 1.089000000000000E+10  -2.362111583584872E-1   -6.737563961920304E-1
 1.090000000000000E+10  -5.684136014521985E-1   -4.325913829627094E-1
 1.091000000000000E+10  -7.043595983191808E-1   -4.716600968391415E-2
 1.092000000000000E+10  -6.081581702798599E-1    3.493935072245138E-1
 1.093000000000000E+10  -3.138996516723409E-1    6.291434170951512E-1
 1.094000000000000E+10   8.212376266067783E-2    7.035312350625801E-1
 1.095000000000000E+10   4.507844042371419E-1    5.509799488712110E-1
 1.096000000000000E+10   6.807005761724932E-1    2.202421340176307E-1
 1.097000000000000E+10   6.962994387402618E-1   -1.814718267556270E-1
 1.098000000000000E+10   4.936382089330758E-1   -5.270694714348291E-1
 1.099000000000000E+10   1.362080131616923E-1   -7.082735839513929E-1
 1.100000000000000E+10  -2.647389028770912E-1   -6.651856776594921E-1
 1.101000000000000E+10  -5.847782744486375E-1   -4.135795881971167E-1
 1.102000000000000E+10  -7.149282433248353E-1   -2.552295299392179E-2
 1.103000000000000E+10  -6.077569360987746E-1    3.696516350389837E-1
 1.104000000000000E+10  -3.022563874742153E-1    6.373146653499733E-1
 1.105000000000000E+10   9.465612492984071E-2    6.950990281092688E-1
 1.106000000000000E+10   4.550447710427790E-1    5.343531615954171E-1
 1.107000000000000E+10   6.703065289010491E-1    2.086465065573835E-1
 1.108000000000000E+10   6.786144171311818E-1   -1.827537938683752E-1
 1.109000000000000E+10   4.732357560546871E-1   -5.212063978294651E-1
 1.110000000000000E+10   1.134735102519610E-1   -6.960239874553222E-1
 1.111000000000000E+10  -2.805927892153349E-1   -6.401126546620591E-1
 1.112000000000000E+10  -5.811027569037042E-1   -3.721157007022803E-1
 1.113000000000000E+10  -6.843360097042739E-1    1.806917138292261E-2
 1.114000000000000E+10  -5.567488496265652E-1    3.988227195158917E-1
 1.115000000000000E+10  -2.429210809184570E-1    6.432356757582399E-1
 1.116000000000000E+10   1.528097361780220E-1    6.680996884964391E-1
 1.117000000000000E+10   4.974217942395552E-1    4.748307379235254E-1
 1.118000000000000E+10   6.799333641054537E-1    1.261821333430928E-1
 1.119000000000000E+10   6.413517830299821E-1   -2.641884549300963E-1
 1.120000000000000E+10   3.933178826900217E-1   -5.689668734629364E-1
 1.121000000000000E+10   1.175068285262083E-2   -6.914332407396031E-1
 1.122000000000000E+10  -3.755343344291602E-1   -5.801021630211228E-1
 1.123000000000000E+10  -6.342971317693225E-1   -2.682677163913813E-1
 1.124000000000000E+10  -6.703079806566068E-1    1.358587840375753E-1
 1.125000000000000E+10  -4.723378901380980E-1    4.869210152029569E-1
 1.126000000000000E+10  -1.192588092618087E-1    6.713744072502378E-1
 1.127000000000000E+10   2.693406035232140E-1    6.273888896401658E-1
 1.128000000000000E+10   5.660212547122532E-1    3.814469547964399E-1
 1.129000000000000E+10   6.832416502651533E-1    1.548923046524505E-2
 1.130000000000000E+10   5.842119098145351E-1   -3.595882024765113E-1
 1.131000000000000E+10   2.978425032790879E-1   -6.166189218587560E-1
 1.132000000000000E+10  -9.185506707406912E-2   -6.710171388216818E-1
 1.133000000000000E+10  -4.504951207382518E-1   -4.949847349787657E-1
 1.134000000000000E+10  -6.498848641092767E-1   -1.487143218510734E-1
 1.135000000000000E+10  -6.239348913955243E-1    2.451744771696051E-1
 1.136000000000000E+10  -3.765168965711816E-1    5.505762303414168E-1
 1.137000000000000E+10  -6.636336256177511E-3    6.695478874592925E-1
 1.138000000000000E+10   3.651256324300903E-1    5.698639469380877E-1
 1.139000000000000E+10   6.218557369467069E-1    2.865601641579367E-1
 1.140000000000000E+10   6.832270400275536E-1   -8.954621120925119E-2
 1.141000000000000E+10   5.283434780075701E-1   -4.455269594815807E-1
 1.142000000000000E+10   2.019166163786086E-1   -6.599470292968507E-1
 1.143000000000000E+10  -1.906229857748125E-1   -6.588249222485933E-1
 1.144000000000000E+10  -5.184169042297374E-1   -4.382622538306497E-1
 1.145000000000000E+10  -6.671571332916576E-1   -6.974360346237991E-2
 1.146000000000000E+10  -5.915254832846587E-1    3.209853219128288E-1
 1.147000000000000E+10  -3.123814864331028E-1    5.999876692642283E-1
 1.148000000000000E+10   7.103127129728944E-2    6.751810234066292E-1
 1.149000000000000E+10   4.294113748777428E-1    5.287717579583275E-1
 1.150000000000000E+10   6.514636611570074E-1    2.134953225431948E-1
 1.151000000000000E+10   6.710104910342864E-1   -1.644159436667549E-1
 1.152000000000000E+10   4.816650808090370E-1   -4.946134346633002E-1
 1.153000000000000E+10   1.362785278927611E-1   -6.726233539201102E-1
 1.154000000000000E+10  -2.577602164109150E-1   -6.322097336792557E-1
 1.155000000000000E+10  -5.664481342396273E-1   -3.814503408427319E-1
 1.156000000000000E+10  -6.764450779583836E-1   -7.003387206467219E-4
 1.157000000000000E+10  -5.586742286605337E-1    3.746149255313118E-1
 1.158000000000000E+10  -2.590513304582753E-1    6.232646314079859E-1
 1.159000000000000E+10   1.242730315855180E-1    6.713413480300591E-1
 1.160000000000000E+10   4.713551909454658E-1    5.060406814617484E-1
 1.161000000000000E+10   6.721088762872506E-1    1.783975891414880E-1
 1.162000000000000E+10   6.677760485528770E-1   -2.066640045596994E-1
 1.163000000000000E+10   4.564479424385589E-1   -5.307243599444215E-1
 1.164000000000000E+10   1.006240494662734E-1   -6.900280973650533E-1
 1.165000000000000E+10  -2.894169416150035E-1   -6.280803740192437E-1
 1.166000000000000E+10  -5.894428483752858E-1   -3.579915921899426E-1
 1.167000000000000E+10  -6.906564680430581E-1    3.345502761295089E-2
 1.168000000000000E+10  -5.549976658692682E-1    4.148187149455934E-1
 1.169000000000000E+10  -2.282938259033557E-1    6.536195381605856E-1
 1.170000000000000E+10   1.750751789004130E-1    6.698993628818452E-1
 1.171000000000000E+10   5.193806311730925E-1    4.724356414666526E-1
 1.172000000000000E+10   6.948040878990359E-1    1.201155367655042E-1
 1.173000000000000E+10   6.474415725929871E-1   -2.714721427688901E-1
 1.174000000000000E+10   3.909500454467723E-1   -5.774555952474565E-1
 1.175000000000000E+10   3.704985852785346E-3   -6.956514316980286E-1
 1.176000000000000E+10  -3.831368743075469E-1   -5.782715592081225E-1
 1.177000000000000E+10  -6.398287387059853E-1   -2.575345557532976E-1
 1.178000000000000E+10  -6.696308796717826E-1    1.532039105374791E-1
 1.179000000000000E+10  -4.662056237491068E-1    5.069512532288488E-1
 1.180000000000000E+10  -1.060538292169663E-1    6.874432930031771E-1
 1.181000000000000E+10   2.910531197638658E-1    6.344355873635518E-1
 1.182000000000000E+10   5.945942977825698E-1    3.754759761665392E-1
 1.183000000000000E+10   7.073030414059004E-1   -7.897408511634819E-3
 1.184000000000000E+10   5.886756380900265E-1   -3.909837457206211E-1
 1.185000000000000E+10   2.749557668114126E-1   -6.437527266363703E-1
 1.186000000000000E+10  -1.387767651339475E-1   -6.770926821090101E-1
 1.187000000000000E+10  -4.983642868685424E-1   -4.691547961374855E-1
 1.188000000000000E+10  -6.727692526774558E-1   -9.285740173097291E-2
 1.189000000000000E+10  -5.972968369418484E-1    3.140956195837802E-1
 1.190000000000000E+10  -3.017205579138437E-1    6.017052381690080E-1
 1.191000000000000E+10   9.737148389293712E-2    6.748033155764068E-1
 1.192000000000000E+10   4.616404395021294E-1    5.107765164420944E-1
 1.193000000000000E+10   6.686140116662499E-1    1.733735355507448E-1
 1.194000000000000E+10   6.535494588663338E-1   -2.222106702029033E-1
 1.195000000000000E+10   4.212464123938705E-1   -5.469678153634490E-1
 1.196000000000000E+10   5.126798010691435E-2   -6.844320815190696E-1
 1.197000000000000E+10  -3.364949056927113E-1   -5.904295684315639E-1
 1.198000000000000E+10  -6.062477659294667E-1   -2.915486256013620E-1
 1.199000000000000E+10  -6.601646217791334E-1    1.077014301980880E-1
 1.200000000000000E+10  -4.819381901137654E-1    4.653004808942859E-1
 1.201000000000000E+10  -1.353736841115761E-1    6.549838206007806E-1
 1.202000000000000E+10   2.542424948153741E-1    6.222885789572852E-1
 1.203000000000000E+10   5.604601793381758E-1    3.828439218794989E-1
 1.204000000000000E+10   6.843096048480762E-1    1.450741955669422E-2
 1.205000000000000E+10   5.822442170105478E-1   -3.611251558609136E-1
 1.206000000000000E+10   2.822956363686716E-1   -6.228042986864826E-1
 1.207000000000000E+10  -1.130481097916149E-1   -6.727705953072711E-1
 1.208000000000000E+10  -4.661476602334201E-1   -4.938704405738898E-1
 1.209000000000000E+10  -6.573714419704471E-1   -1.498002069429478E-1
 1.210000000000000E+10  -6.234706593866619E-1    2.423301639929445E-1
 1.211000000000000E+10  -3.855009802756321E-1    5.533718704940933E-1
 1.212000000000000E+10  -1.966892087168204E-2    6.804072351905514E-1
 1.213000000000000E+10   3.531651851795856E-1    5.847528246486249E-1
 1.214000000000000E+10   6.112361186983101E-1    3.006291507025778E-1
 1.215000000000000E+10   6.735456732949103E-1   -7.823479761785518E-2
 1.216000000000000E+10   5.237655620243756E-1   -4.260588633146130E-1
 1.217000000000000E+10   2.082242825679897E-1   -6.351687377150782E-1
 1.218000000000000E+10  -1.718443872831883E-1   -6.381263252002926E-1
 1.219000000000000E+10  -4.931844278051936E-1   -4.315728930687965E-1
 1.220000000000000E+10  -6.489527962118756E-1   -8.219676917951332E-2
 1.221000000000000E+10  -5.829018913398801E-1    2.931668187584043E-1
 1.222000000000000E+10  -3.213849771153032E-1    5.693016206381488E-1
 1.223000000000000E+10   4.562222201127523E-2    6.565819885069052E-1
 1.224000000000000E+10   3.976790392666773E-1    5.320821845577012E-1
 1.225000000000000E+10   6.247188653900311E-1    2.393714605988040E-1
 1.226000000000000E+10   6.532276536059062E-1   -1.322309359488034E-1
 1.227000000000000E+10   4.799173546145863E-1   -4.608209370093794E-1
 1.228000000000000E+10   1.586692597039698E-1   -6.444775090723599E-1
 1.229000000000000E+10  -2.094240886642711E-1   -6.257390832531171E-1
 1.230000000000000E+10  -5.088570302921999E-1   -4.107727734546346E-1
 1.231000000000000E+10  -6.486512646096650E-1   -6.454685090277508E-2
 1.232000000000000E+10  -5.818568958216784E-1    3.002998709118687E-1
 1.233000000000000E+10  -3.283493933079085E-1    5.718902207394604E-1
 1.234000000000000E+10   3.530341920003243E-2    6.615652083328242E-1
 1.235000000000000E+10   3.913610065100358E-1    5.352047831946699E-1
 1.236000000000000E+10   6.242229460502957E-1    2.407815632611497E-1
 1.237000000000000E+10   6.572519906621945E-1   -1.330724483324215E-1
 1.238000000000000E+10   4.813204479401711E-1   -4.643420356280034E-1
 1.239000000000000E+10   1.537526471810291E-1   -6.485861371633754E-1
 1.240000000000000E+10  -2.235158699127499E-1   -6.277788995685429E-1
 1.241000000000000E+10  -5.254514378736184E-1   -4.091938716903595E-1
 1.242000000000000E+10  -6.631661973561733E-1   -6.081931416419966E-2
 1.243000000000000E+10  -5.920526334517360E-1    3.083795597866289E-1
 1.244000000000000E+10  -3.339282990805368E-1    5.823236198168028E-1
 1.245000000000000E+10   3.074807906239380E-2    6.757148084498282E-1
 1.246000000000000E+10   3.860608017901616E-1    5.520059739017064E-1
 1.247000000000000E+10   6.227034857367132E-1    2.555092519009163E-1
 1.248000000000000E+10   6.647435893904252E-1   -1.236747109322204E-1
 1.249000000000000E+10   4.944522639387152E-1   -4.663230947395814E-1
 1.250000000000000E+10   1.636360728320161E-1   -6.592370721984488E-1
