#  HZ   S   RI   R     50.00 
! Rohde & Schwarz Vector Network Analyzer 
! Rohde-Schwarz,ZNA43-4Port,1332450044101932,2.92
! Created: UTC 6/2/2026, 7:38:59 AM
! freq[Hz]                re:S11                  im:S11
 8.000000000000000E9     7.249480197419511E-1   -1.286177576776164E-1
 8.010000000000000E9     4.879199203095012E-1   -5.540078425716398E-1
 8.020000000000000E9     4.928966212054708E-2   -7.365572870073080E-1
 8.030000000000000E9    -4.055954945454975E-1   -6.146574225451998E-1
 8.040000000000000E9    -6.939652293552132E-1   -2.415103965685421E-1
 8.050000000000000E9    -6.998556617641692E-1    2.284106926085631E-1
 8.060000000000000E9    -4.366141760737239E-1    5.991470111327393E-1
 8.070000000000000E9    -1.086418958977282E-2    7.423289939817772E-1
 8.080000000000000E9     4.132590602634180E-1    6.175849169183739E-1
 8.090000000000000E9     6.911378388002605E-1    2.806575323957241E-1
 8.100000000000000E9     7.343585129641274E-1   -1.511356032470255E-1
 8.110000000000000E9     5.262177073044174E-1   -5.319684910736430E-1
 8.120000000000000E9     1.396638972902191E-1   -7.344271110705886E-1
 8.130000000000000E9    -2.943978633015278E-1   -6.868818789975975E-1
 8.140000000000000E9    -6.261620910375101E-1   -4.067892183388476E-1
 8.150000000000000E9    -7.451527254745526E-1    6.749842283382602E-3
 8.160000000000000E9    -6.119065441553131E-1    4.233546099983045E-1
 8.170000000000000E9    -2.791935125655084E-1    6.951434179484777E-1
 8.180000000000000E9     1.419427607610576E-1    7.411264978256930E-1
 8.190000000000000E9     5.174295097780700E-1    5.510615633624778E-1
 8.200000000000000E9     7.290248005311886E-1    1.870371652643403E-1
 8.210000000000000E9     7.181305194393736E-1   -2.359574788136829E-1
 8.220000000000000E9     4.797682810783379E-1   -5.834815034889785E-1
 8.230000000000000E9     8.882873142032788E-2   -7.448833529024965E-1
 8.240000000000000E9    -3.320227919680037E-1   -6.654983420233841E-1
 8.250000000000000E9    -6.460450754320052E-1   -3.640957912041992E-1
 8.260000000000000E9    -7.431146092444822E-1    5.130397544630401E-2
 8.270000000000000E9    -5.918376741534234E-1    4.551765175276415E-1
 8.280000000000000E9    -2.404703033544862E-1    7.065046616319821E-1
 8.290000000000000E9     1.875575734849287E-1    7.221935325073626E-1
 8.300000000000000E9     5.516777490216970E-1    5.059657048415176E-1
 8.310000000000000E9     7.345483859814004E-1    1.282067713792472E-1
 8.320000000000000E9     6.819634113154002E-1   -2.895515947042895E-1
 8.330000000000000E9     4.148318431464785E-1   -6.062785780157475E-1
 8.340000000000000E9     1.270856512949260E-2   -7.414289935705661E-1
 8.350000000000000E9    -4.061984532440858E-1   -6.185461450096681E-1
 8.360000000000000E9    -6.845760235876166E-1   -2.672802845297775E-1
 8.370000000000000E9    -7.122112396692001E-1    1.796780282946519E-1
 8.380000000000000E9    -4.823269267303167E-1    5.587707009078728E-1
 8.390000000000000E9    -8.186208151960003E-2    7.378241479136833E-1
 8.400000000000000E9     3.471088866146718E-1    6.580062485657231E-1
 8.410000000000000E9     6.629886813059874E-1    3.514030064851279E-1
 8.420000000000000E9     7.514228225965141E-1   -7.869328094297780E-2
 8.430000000000000E9     5.788525152988443E-1   -4.840137588461726E-1
 8.440000000000000E9     2.013469178857153E-1   -7.199056878041291E-1
 8.450000000000000E9    -2.509979672337528E-1   -6.955085246753269E-1
 8.460000000000000E9    -6.046159724774387E-1   -4.156722530382533E-1
 8.470000000000000E9    -7.283138424911385E-1    2.117871108639122E-2
 8.480000000000000E9    -5.698424037718353E-1    4.497740479780789E-1
 8.490000000000000E9    -1.886280892746511E-1    7.023639713120177E-1
 8.500000000000000E9     2.652765946744601E-1    6.832284558028587E-1
 8.510000000000000E9     6.141434917300992E-1    4.031366624166076E-1
 8.520000000000000E9     7.346424953075879E-1   -2.493273528496907E-2
 8.530000000000000E9     5.865015063198914E-1   -4.449287593504390E-1
 8.540000000000000E9     2.181052207209549E-1   -7.030808052662832E-1
 8.550000000000000E9    -2.361380476422996E-1   -6.919370140881749E-1
 8.560000000000000E9    -6.002256956671006E-1   -4.066671048285026E-1
 8.570000000000000E9    -7.217233221509308E-1    4.020179016904635E-2
 8.580000000000000E9    -5.548315764752901E-1    4.653586425320108E-1
 8.590000000000000E9    -1.752276830202785E-1    7.056869660419709E-1
 8.600000000000000E9     2.695762564285087E-1    6.782323844854594E-1
 8.610000000000000E9     6.195844027738685E-1    4.026168515436640E-1
 8.620000000000000E9     7.451035945513949E-1   -1.977373412126686E-2
 8.630000000000000E9     6.036378029717813E-1   -4.355670661868621E-1
 8.640000000000000E9     2.473540014497082E-1   -6.945139792792500E-1
 8.650000000000000E9    -1.962060487019202E-1   -7.033677402701592E-1
 8.660000000000000E9    -5.613848224149525E-1   -4.572894028618316E-1
 8.670000000000000E9    -7.173702411016075E-1   -4.457826117576701E-2
 8.680000000000000E9    -6.056908832508765E-1    3.846271793692094E-1
 8.690000000000000E9    -2.653625326345602E-1    6.711926524786871E-1
 8.700000000000000E9     1.764738689280488E-1    7.087848747659973E-1
 8.710000000000000E9     5.525883881413480E-1    4.843773106093365E-1
 8.720000000000000E9     7.323038948716544E-1    8.745523526707960E-2
 8.730000000000000E9     6.568443665177356E-1   -3.391125575915376E-1
 8.740000000000000E9     3.548471802955603E-1   -6.490643309689487E-1
 8.750000000000000E9    -7.157132885807779E-2   -7.342728513718525E-1
 8.760000000000000E9    -4.760810253930321E-1   -5.578730749535892E-1
 8.770000000000000E9    -7.114545643954748E-1   -1.784382404401956E-1
 8.780000000000000E9    -6.848095155156415E-1    2.673900078956087E-1
 8.790000000000000E9    -4.077095706530089E-1    6.129877045650873E-1
 8.800000000000000E9     1.447509261207118E-2    7.366090935458156E-1
 8.810000000000000E9     4.352840020683871E-1    6.027196078412994E-1
 8.820000000000000E9     7.056817756219985E-1    2.568970813424308E-1
 8.830000000000000E9     7.311378052974697E-1   -1.832072288556918E-1
 8.840000000000000E9     4.963248965884625E-1   -5.613898561608064E-1
 8.850000000000000E9     8.256586787302303E-2   -7.360444148149303E-1
 8.860000000000000E9    -3.567910000594277E-1   -6.427433232634983E-1
 8.870000000000000E9    -6.588875858525594E-1   -3.081018615062261E-1
 8.880000000000000E9    -7.075887749317171E-1    1.409810320122130E-1
 8.890000000000000E9    -4.844641546803435E-1    5.333947335390314E-1
 8.900000000000000E9    -7.678077747847399E-2    7.207056189384051E-1
 8.910000000000000E9     3.564108387108431E-1    6.339610066333432E-1
 8.920000000000000E9     6.588914763195715E-1    3.145348022894811E-1
 8.930000000000000E9     7.226498920856204E-1   -1.190738676353379E-1
 8.940000000000000E9     5.259652427267359E-1   -5.104386173047876E-1
 8.950000000000000E9     1.379318054236811E-1   -7.172298237226038E-1
 8.960000000000000E9    -3.037583453226659E-1   -6.546287596375679E-1
 8.970000000000000E9    -6.284858788543921E-1   -3.477001485654462E-1
 8.980000000000000E9    -7.119743876339453E-1    8.924896175922711E-2
 8.990000000000000E9    -5.242308453053321E-1    4.879100134456242E-1
 9.000000000000000E9    -1.426761816022989E-1    6.996328721625618E-1
 9.010000000000000E9     2.887713113280485E-1    6.593388023478367E-1
 9.020000000000000E9     6.149168720820822E-1    3.855357665078503E-1
 9.030000000000000E9     7.280904858683661E-1   -2.312047164995039E-2
 9.040000000000000E9     5.878662080764785E-1   -4.268482383460663E-1
 9.050000000000000E9     2.386003878923704E-1   -6.812846139045706E-1
 9.060000000000000E9    -1.911451404046260E-1   -6.935795165400038E-1
 9.070000000000000E9    -5.499453493867800E-1   -4.543144598709508E-1
 9.080000000000000E9    -7.064786893552866E-1   -5.365232824225541E-2
 9.090000000000000E9    -6.090591161845240E-1    3.637598671336866E-1
 9.100000000000000E9    -2.943528244024758E-1    6.531486981079168E-1
 9.110000000000000E9     1.234957610922764E-1    7.106745008446100E-1
 9.120000000000000E9     5.019406698169319E-1    5.256619813424649E-1
 9.130000000000000E9     7.134432285448336E-1    1.621602036036797E-1
 9.140000000000000E9     6.885382051977479E-1   -2.565700591553398E-1
 9.150000000000000E9     4.369310018398199E-1   -5.916341974368577E-1
 9.160000000000000E9     3.589337383106009E-2   -7.276799277680013E-1
 9.170000000000000E9    -3.745320102398368E-1   -6.217487572798099E-1
 9.180000000000000E9    -6.580242453387222E-1   -3.084955235211992E-1
 9.190000000000000E9    -7.201607146969861E-1    1.070631053910875E-1
 9.200000000000000E9    -5.422027998148209E-1    4.856249145153111E-1
 9.210000000000000E9    -1.862633925051807E-1    7.101382706096074E-1
 9.220000000000000E9     2.313681786553370E-1    7.042361620894960E-1
 9.230000000000000E9     5.766370265164565E-1    4.737047711905329E-1
 9.240000000000000E9     7.417166005859249E-1    9.304638489845991E-2
 9.250000000000000E9     6.736179164168721E-1   -3.183682192608059E-1
 9.260000000000000E9     3.967766680404861E-1   -6.290044318485360E-1
 9.270000000000000E9    -6.627239060123595E-3   -7.385260804597503E-1
 9.280000000000000E9    -4.048330586511956E-1   -6.088151565329138E-1
 9.290000000000000E9    -6.672778198301396E-1   -2.835073654874199E-1
 9.300000000000000E9    -7.121641317920303E-1    1.305105696273681E-1
 9.310000000000000E9    -5.273937447216209E-1    4.954580753459465E-1
 9.320000000000000E9    -1.775120191876847E-1    7.047909973538115E-1
 9.330000000000000E9     2.313211538483398E-1    6.950618757994470E-1
 9.340000000000000E9     5.720338007679704E-1    4.666758683334108E-1
 9.350000000000000E9     7.357339261088591E-1    9.151615874954973E-2
 9.360000000000000E9     6.682417456564016E-1   -3.105112481671231E-1
 9.370000000000000E9     3.930644090423237E-1   -6.170221752514570E-1
 9.380000000000000E9    -4.698232369400343E-3   -7.296518392729057E-1
 9.390000000000000E9    -3.996522706195838E-1   -6.102968787726805E-1
 9.400000000000000E9    -6.633829844998969E-1   -2.948219203018063E-1
 9.410000000000000E9    -7.147066668879988E-1    1.184791508304838E-1
 9.420000000000000E9    -5.335099978871948E-1    4.928878802247489E-1
 9.430000000000000E9    -1.792414045857045E-1    7.072802421563349E-1
 9.440000000000000E9     2.327280200338529E-1    6.945096015329092E-1
 9.450000000000000E9     5.713526065543331E-1    4.599834958227975E-1
 9.460000000000000E9     7.317978740898897E-1    7.574231485622494E-2
 9.470000000000000E9     6.554226969938263E-1   -3.351616198562052E-1
 9.480000000000000E9     3.621565439351203E-1   -6.383204050421289E-1
 9.490000000000000E9    -5.494619378447989E-2   -7.273992641184168E-1
 9.500000000000000E9    -4.536277384822017E-1   -5.658738659099037E-1
 9.510000000000000E9    -6.931686784308732E-1   -2.087296623654551E-1
 9.520000000000000E9    -6.859599191104639E-1    2.197864514927794E-1
 9.530000000000000E9    -4.373047287958122E-1    5.693621482518255E-1
 9.540000000000000E9    -3.216922242887166E-2    7.188614547194240E-1
 9.550000000000000E9     3.896424964227539E-1    6.107348990143815E-1
 9.560000000000000E9     6.680495427134657E-1    2.763504974366431E-1
 9.570000000000000E9     6.984867972946519E-1   -1.646142200863705E-1
 9.580000000000000E9     4.607219958888080E-1   -5.423597832115084E-1
 9.590000000000000E9     4.304242334824521E-2   -7.063649599985677E-1
 9.600000000000000E9    -3.916288610974273E-1   -5.869296057175486E-1
 9.610000000000000E9    -6.650449678880476E-1   -2.246598144672307E-1
 9.620000000000000E9    -6.640980848784021E-1    2.287136795205539E-1
 9.630000000000000E9    -3.901339422075943E-1    5.868645608755746E-1
 9.640000000000000E9     4.184535939762286E-2    7.046026299064440E-1
 9.650000000000000E9     4.550279661447914E-1    5.370454075280582E-1
 9.660000000000000E9     6.868854347428971E-1    1.531204833708584E-1
 9.670000000000000E9     6.361473945478687E-1   -2.919234375646554E-1
 9.680000000000000E9     3.230517689366288E-1   -6.126229975941302E-1
 9.690000000000000E9    -1.205018935563396E-1   -6.732643503555052E-1
 9.700000000000000E9    -5.057406590121387E-1   -4.515402180506600E-1
 9.710000000000000E9    -6.750410022951567E-1   -5.064307049752709E-2
 9.720000000000000E9    -5.688206997171881E-1    3.641379035840654E-1
 9.730000000000000E9    -2.428128760372321E-1    6.313747420091976E-1
 9.740000000000000E9     1.723942365318730E-1    6.592758393031578E-1
 9.750000000000000E9     5.245587338527793E-1    4.453440029166689E-1
 9.760000000000000E9     6.831838122867984E-1    6.751846572467014E-2
 9.770000000000000E9     5.965506761854782E-1   -3.344506773727489E-1
 9.780000000000000E9     2.955286602908299E-1   -6.134395402171878E-1
 9.790000000000000E9    -1.077168881063312E-1   -6.696182140792489E-1
 9.800000000000000E9    -4.676065992704923E-1   -4.876562032509217E-1
 9.810000000000000E9    -6.596066219442626E-1   -1.343917376263695E-1
 9.820000000000000E9    -6.232306722793604E-1    2.615196323662093E-1
 9.830000000000000E9    -3.753608693596817E-1    5.675749508290657E-1
 9.840000000000000E9    -3.008476865486834E-3    6.835358094389952E-1
 9.850000000000000E9     3.680637766023809E-1    5.761137737824039E-1
 9.860000000000000E9     6.253267590188800E-1    2.867581902144382E-1
 9.870000000000000E9     6.828282773709703E-1   -9.485273130319655E-2
 9.880000000000000E9     5.230836205014239E-1   -4.462552861522434E-1
 9.890000000000000E9     1.968093825565835E-1   -6.546974325670633E-1
 9.900000000000000E9    -1.911888898831858E-1   -6.520398725565689E-1
 9.910000000000000E9    -5.148880146373902E-1   -4.443639009010641E-1
 9.920000000000000E9    -6.720803187852932E-1   -9.510446881691813E-2
 9.930000000000000E9    -6.156897776255598E-1    2.813224954921916E-1
 9.940000000000000E9    -3.690716852012443E-1    5.676689695363394E-1
 9.950000000000000E9    -1.120572965702184E-2    6.806732608181308E-1
 9.960000000000000E9     3.462772293470873E-1    5.843867856097535E-1
 9.970000000000000E9     5.999356125824865E-1    3.149770855625985E-1
 9.980000000000000E9     6.747627515087119E-1   -4.855940957203143E-2
 9.990000000000000E9     5.466702335314821E-1   -3.977405902731484E-1
 1.000000000000000E+10   2.539335270020818E-1   -6.262679770766987E-1
 1.001000000000000E+10  -1.147242024922014E-1   -6.606099778658014E-1
 1.002000000000000E+10  -4.475695989195455E-1   -4.957075606897409E-1
 1.003000000000000E+10  -6.431305392248752E-1   -1.817550566164902E-1
 1.004000000000000E+10  -6.436954948086885E-1    1.871490179665473E-1
 1.005000000000000E+10  -4.483523526634100E-1    4.992651921449440E-1
 1.006000000000000E+10  -1.170080307859314E-1    6.634233547765424E-1
 1.007000000000000E+10   2.506083672887939E-1    6.278798883113231E-1
 1.008000000000000E+10   5.421912615497145E-1    4.037934602248891E-1
 1.009000000000000E+10   6.709049083267085E-1    6.021084639069205E-2
 1.010000000000000E+10   5.982995648706521E-1   -3.010890030349621E-1
 1.011000000000000E+10   3.466070885202072E-1   -5.740799164585776E-1
 1.012000000000000E+10  -1.260063381753906E-2   -6.708723678185045E-1
 1.013000000000000E+10  -3.691375779574977E-1   -5.588181510177439E-1
 1.014000000000000E+10  -6.099525289139927E-1   -2.710801537659249E-1
 1.015000000000000E+10  -6.590775322330426E-1    1.014632861486385E-1
 1.016000000000000E+10  -5.040088608053735E-1    4.402570476292100E-1
 1.017000000000000E+10  -1.915649595639621E-1    6.419082261011880E-1
 1.018000000000000E+10   1.811983993808275E-1    6.457844185942963E-1
 1.019000000000000E+10   5.013611978562497E-1    4.491260407587042E-1
 1.020000000000000E+10   6.681958037219032E-1    1.080683052522964E-1
 1.021000000000000E+10   6.199734366045299E-1   -2.704340284029791E-1
 1.022000000000000E+10   3.689674497725523E-1   -5.650351383877541E-1
 1.023000000000000E+10  -6.177879683531817E-3   -6.738156900685704E-1
 1.024000000000000E+10  -3.804620963712196E-1   -5.571540741285858E-1
 1.025000000000000E+10  -6.281993844220241E-1   -2.524895784893358E-1
 1.026000000000000E+10  -6.600570336575589E-1    1.411707105798011E-1
 1.027000000000000E+10  -4.692744469193265E-1    4.887224075536615E-1
 1.028000000000000E+10  -1.157042328093927E-1    6.723110384496120E-1
 1.029000000000000E+10   2.812968097807458E-1    6.250964617641377E-1
 1.030000000000000E+10   5.830353128396425E-1    3.612165093864851E-1
 1.031000000000000E+10   6.875602769150970E-1   -3.379604972986702E-2
 1.032000000000000E+10   5.502567393290195E-1   -4.195607028091924E-1
 1.033000000000000E+10   2.153181730192572E-1   -6.602630096505887E-1
 1.034000000000000E+10  -2.021924392042645E-1   -6.640661202255824E-1
 1.035000000000000E+10  -5.480084116120522E-1   -4.215447343833812E-1
 1.036000000000000E+10  -6.941910134220639E-1   -2.725570588520387E-2
 1.037000000000000E+10  -5.820280882949103E-1    3.791029011490288E-1
 1.038000000000000E+10  -2.539982570074669E-1    6.442203468185644E-1
 1.039000000000000E+10   1.683066505962261E-1    6.708656998520852E-1
 1.040000000000000E+10   5.310253192209737E-1    4.470796970130603E-1
 1.041000000000000E+10   6.932326880570504E-1    5.330949332385658E-2
 1.042000000000000E+10   5.920817293471926E-1   -3.671126357023324E-1
 1.043000000000000E+10   2.580092995206719E-1   -6.497886794841091E-1
 1.044000000000000E+10  -1.800298984890213E-1   -6.792352580148170E-1
 1.045000000000000E+10  -5.489428214745381E-1   -4.447082848558219E-1
 1.046000000000000E+10  -7.039480687734293E-1   -3.442226537821398E-2
 1.047000000000000E+10  -5.922752691028659E-1    3.851757232912388E-1
 1.048000000000000E+10  -2.614281425017326E-1    6.606282683996691E-1
 1.049000000000000E+10   1.652985012727188E-1    6.937090498636309E-1
 1.050000000000000E+10   5.312177308451722E-1    4.741613714390323E-1
 1.051000000000000E+10   7.098985990187718E-1    8.047127240575191E-2
 1.052000000000000E+10   6.286157295570461E-1   -3.426838548129781E-1
 1.053000000000000E+10   3.183516542308854E-1   -6.410299244566886E-1
 1.054000000000000E+10  -1.094588394265796E-1   -7.058645805517634E-1
 1.055000000000000E+10  -4.990558132848408E-1   -5.091390056973129E-1
 1.056000000000000E+10  -7.048554367525629E-1   -1.310136695112472E-1
 1.057000000000000E+10  -6.541797213704097E-1    2.946489632306880E-1
 1.058000000000000E+10  -3.718760346017071E-1    6.110803152612155E-1
 1.059000000000000E+10   3.345060315844925E-2    7.131951191190692E-1
 1.060000000000000E+10   4.241295892023088E-1    5.774752196956376E-1
 1.061000000000000E+10   6.697922690416102E-1    2.519790745640691E-1
 1.062000000000000E+10   6.979321651577907E-1   -1.567148562822923E-1
 1.063000000000000E+10   4.950423405668806E-1   -5.177155036324146E-1
 1.064000000000000E+10   1.224751012787141E-1   -7.074624160147566E-1
 1.065000000000000E+10  -2.937517719566933E-1   -6.561226101760388E-1
 1.066000000000000E+10  -6.090007655465018E-1   -3.732566019822307E-1
 1.067000000000000E+10  -7.111472681035392E-1    3.524251240869709E-2
 1.068000000000000E+10  -5.712953027276968E-1    4.266341020087520E-1
 1.069000000000000E+10  -2.434825233454506E-1    6.727505382283697E-1
 1.070000000000000E+10   1.605351440812254E-1    6.982722206448337E-1
 1.071000000000000E+10   5.163861391415285E-1    5.026726641993888E-1
 1.072000000000000E+10   7.103116022672389E-1    1.494272717098816E-1
 1.073000000000000E+10   6.834709302260781E-1   -2.503952331907156E-1
 1.074000000000000E+10   4.453223161705206E-1   -5.726673109279076E-1
 1.075000000000000E+10   6.787462132973600E-2   -7.171307868871368E-1
 1.076000000000000E+10  -3.293314684486799E-1   -6.399004915899175E-1
 1.077000000000000E+10  -6.223463620104622E-1   -3.575005322996958E-1
 1.078000000000000E+10  -7.120941348557123E-1    4.295201863567739E-2
 1.079000000000000E+10  -5.645049620071957E-1    4.268657562831723E-1
 1.080000000000000E+10  -2.324862377987331E-1    6.645771248650213E-1
 1.081000000000000E+10   1.676668535150079E-1    6.824295918605449E-1
 1.082000000000000E+10   5.090904604864213E-1    4.819611739964343E-1
 1.083000000000000E+10   6.893436993805221E-1    1.319254315154631E-1
 1.084000000000000E+10   6.554276455631789E-1   -2.611641064627322E-1
 1.085000000000000E+10   4.145139333022639E-1   -5.759836946057832E-1
 1.086000000000000E+10   3.905837117886112E-2   -7.054973885632122E-1
 1.087000000000000E+10  -3.496593970722988E-1   -6.093378943606801E-1
 1.088000000000000E+10  -6.234258862325557E-1   -3.167383398616826E-1
 1.089000000000000E+10  -6.934446812393554E-1    7.577371486063970E-2
 1.090000000000000E+10  -5.395435398431631E-1    4.410127201914124E-1
 1.091000000000000E+10  -2.069997388761013E-1    6.619210856965725E-1
 1.092000000000000E+10   1.892585930184370E-1    6.710627210611885E-1
 1.093000000000000E+10   5.261637125798414E-1    4.664819177030738E-1
 1.094000000000000E+10   6.970642563737288E-1    1.128681672517930E-1
 1.095000000000000E+10   6.472381887840581E-1   -2.771627571525375E-1
 1.096000000000000E+10   3.957228744384350E-1   -5.855030731699465E-1
 1.097000000000000E+10   1.633225960759095E-2   -7.063538037904309E-1
 1.098000000000000E+10  -3.687722505942379E-1   -5.984109322945562E-1
 1.099000000000000E+10  -6.318499484541886E-1   -2.928081486674654E-1
 1.100000000000000E+10  -6.803690915977798E-1    1.105183152278712E-1
 1.101000000000000E+10  -5.031296159399166E-1    4.721169156845256E-1
 1.102000000000000E+10  -1.531425667009594E-1    6.705899107619453E-1
 1.103000000000000E+10   2.448009725837381E-1    6.397274189063000E-1
 1.104000000000000E+10   5.574735829494873E-1    3.977043689081299E-1
 1.105000000000000E+10   6.884467817130352E-1    2.612385030718535E-2
 1.106000000000000E+10   5.908743772407054E-1   -3.534318746926002E-1
 1.107000000000000E+10   2.970510244164097E-1   -6.204336647014588E-1
 1.108000000000000E+10  -1.014984606717988E-1   -6.794991030624838E-1
 1.109000000000000E+10  -4.667168660705328E-1   -5.023465383679167E-1
 1.110000000000000E+10  -6.672017530662595E-1   -1.504420874172746E-1
 1.111000000000000E+10  -6.243189070022098E-1    2.562321288142713E-1
 1.112000000000000E+10  -3.639680233184199E-1    5.660753165372241E-1
 1.113000000000000E+10   1.957435545683401E-2    6.769134437027047E-1
 1.114000000000000E+10   3.955201704024565E-1    5.556488162699502E-1
 1.115000000000000E+10   6.373705966945742E-1    2.454071661400852E-1
 1.116000000000000E+10   6.716496616032156E-1   -1.503050460319344E-1
 1.117000000000000E+10   4.799015447537635E-1   -4.991510987829517E-1
 1.118000000000000E+10   1.239858965064206E-1   -6.816607378289599E-1
 1.119000000000000E+10  -2.765049051940228E-1   -6.317036361292958E-1
 1.120000000000000E+10  -5.822542544438890E-1   -3.606294922108376E-1
 1.121000000000000E+10  -6.856136317280044E-1    3.155516384420428E-2
 1.122000000000000E+10  -5.482495634622518E-1    4.129593214250474E-1
 1.123000000000000E+10  -2.210491060299299E-1    6.487625265948642E-1
 1.124000000000000E+10   1.778220399858902E-1    6.619007614747975E-1
 1.125000000000000E+10   5.147954191901187E-1    4.571785916937463E-1
 1.126000000000000E+10   6.814336463675197E-1    1.060680004936319E-1
 1.127000000000000E+10   6.303605182985814E-1   -2.795272016082626E-1
 1.128000000000000E+10   3.752721009258396E-1   -5.793856553859905E-1
 1.129000000000000E+10  -9.199921948122851E-3   -6.915723265740894E-1
 1.130000000000000E+10  -3.946057032783391E-1   -5.678058595439143E-1
 1.131000000000000E+10  -6.397032369064866E-1   -2.391013716722280E-1
 1.132000000000000E+10  -6.571743250131091E-1    1.706499076580210E-1
 1.133000000000000E+10  -4.471921974133761E-1    5.152219532807636E-1
 1.134000000000000E+10  -8.922201350074573E-2    6.836697535427930E-1
 1.135000000000000E+10   2.981563935511731E-1    6.274234195614395E-1
 1.136000000000000E+10   5.957939096187650E-1    3.680652369533327E-1
 1.137000000000000E+10   7.072182015068590E-1   -1.049003453215864E-2
 1.138000000000000E+10   5.940345825692721E-1   -3.908993167946319E-1
 1.139000000000000E+10   2.870543842200183E-1   -6.486000585155378E-1
 1.140000000000000E+10  -1.167457057509089E-1   -6.930551727284765E-1
 1.141000000000000E+10  -4.814691420982757E-1   -5.070270813445342E-1
 1.142000000000000E+10  -6.787651898631144E-1   -1.474642351700000E-1
 1.143000000000000E+10  -6.397075884495785E-1    2.613087743424624E-1
 1.144000000000000E+10  -3.784068372562315E-1    5.772328904181167E-1
 1.145000000000000E+10   1.177972405856468E-2    6.931998320112273E-1
 1.146000000000000E+10   3.937528104241067E-1    5.793542099195091E-1
 1.147000000000000E+10   6.480196989316335E-1    2.743973934187058E-1
 1.148000000000000E+10   6.950334542171547E-1   -1.197388508298166E-1
 1.149000000000000E+10   5.208042733070700E-1   -4.785074144999244E-1
 1.150000000000000E+10   1.770133883510323E-1   -6.868493880463646E-1
 1.151000000000000E+10  -2.257820885715983E-1   -6.644149721453441E-1
 1.152000000000000E+10  -5.555366614508294E-1   -4.165123869155200E-1
 1.153000000000000E+10  -6.905708918330168E-1   -2.401381762612487E-2
 1.154000000000000E+10  -5.839842095500837E-1    3.717007067806437E-1
 1.155000000000000E+10  -2.813666444300364E-1    6.354213007048518E-1
 1.156000000000000E+10   1.201004135744288E-1    6.844019681643140E-1
 1.157000000000000E+10   4.797319342457868E-1    5.101720156560852E-1
 1.158000000000000E+10   6.864961622251664E-1    1.690108580602116E-1
 1.159000000000000E+10   6.711344429075660E-1   -2.314782455199379E-1
 1.160000000000000E+10   4.337700751567559E-1   -5.577009900523968E-1
 1.161000000000000E+10   5.103275809097486E-2   -7.026473227477417E-1
 1.162000000000000E+10  -3.502622654906004E-1   -6.056452370377734E-1
 1.163000000000000E+10  -6.275216258690405E-1   -2.951325521115083E-1
 1.164000000000000E+10  -6.780678023733857E-1    1.212547454036680E-1
 1.165000000000000E+10  -4.803218329091944E-1    4.926178283453257E-1
 1.166000000000000E+10  -1.172242773292071E-1    6.848581828296909E-1
 1.167000000000000E+10   2.884009360986834E-1    6.354066466892920E-1
 1.168000000000000E+10   5.940917141557127E-1    3.667410642465238E-1
 1.169000000000000E+10   6.988627816029599E-1   -2.490294170381861E-2
 1.170000000000000E+10   5.716043565702122E-1   -4.086942735231220E-1
 1.171000000000000E+10   2.516568001694021E-1   -6.499636377610869E-1
 1.172000000000000E+10  -1.548733355489741E-1   -6.717888385118090E-1
 1.173000000000000E+10  -5.089194268519341E-1   -4.595446809466083E-1
 1.174000000000000E+10  -6.817587205582876E-1   -8.325176191622501E-2
 1.175000000000000E+10  -6.098310111949310E-1    3.203087233495697E-1
 1.176000000000000E+10  -3.154358053181435E-1    6.119621701329548E-1
 1.177000000000000E+10   8.494501532397168E-2    6.855856856819612E-1
 1.178000000000000E+10   4.525308372494682E-1    5.279345331765148E-1
 1.179000000000000E+10   6.703587962728531E-1    1.969008722912311E-1
 1.180000000000000E+10   6.675731948598477E-1   -1.994101879754275E-1
 1.181000000000000E+10   4.446789417067207E-1   -5.348903468612316E-1
 1.182000000000000E+10   6.882027729651423E-2   -6.865800962883830E-1
 1.183000000000000E+10  -3.271176746216926E-1   -5.966866229925974E-1
 1.184000000000000E+10  -6.011078579238913E-1   -2.978460962396832E-1
 1.185000000000000E+10  -6.580985216701344E-1    1.028947772883826E-1
 1.186000000000000E+10  -4.845790012676308E-1    4.601142058726689E-1
 1.187000000000000E+10  -1.456882675264969E-1    6.550939293706500E-1
 1.188000000000000E+10   2.402408188190550E-1    6.302844460510906E-1
 1.189000000000000E+10   5.478859625647409E-1    4.018782296954039E-1
 1.190000000000000E+10   6.848883488239824E-1    4.739318211106148E-2
 1.191000000000000E+10   6.067809525060261E-1   -3.180037645330424E-1
 1.192000000000000E+10   3.429236857018774E-1   -5.857952129311695E-1
 1.193000000000000E+10  -2.706949681457605E-2   -6.719469652199802E-1
 1.194000000000000E+10  -3.887003042436497E-1   -5.443384804617171E-1
 1.195000000000000E+10  -6.228185644023193E-1   -2.392992842173624E-1
 1.196000000000000E+10  -6.456255172322160E-1    1.459230295681994E-1
 1.197000000000000E+10  -4.542677275261022E-1    4.803834203114405E-1
 1.198000000000000E+10  -1.147221391177997E-1    6.548463670869505E-1
 1.199000000000000E+10   2.608150067802021E-1    6.183310216718773E-1
 1.200000000000000E+10   5.552856495666275E-1    3.867742946014029E-1
 1.201000000000000E+10   6.815559267511662E-1    3.086997425732995E-2
 1.202000000000000E+10   5.979947012485797E-1   -3.393340975065356E-1
 1.203000000000000E+10   3.244405979724044E-1   -6.075642809538674E-1
 1.204000000000000E+10  -5.469998381787817E-2   -6.825441422936211E-1
 1.205000000000000E+10  -4.144359151578295E-1   -5.359634247063977E-1
 1.206000000000000E+10  -6.415926324634983E-1   -2.184486327331193E-1
 1.207000000000000E+10  -6.563786654455463E-1    1.676342905464100E-1
 1.208000000000000E+10  -4.587863785684946E-1    4.977072625738991E-1
 1.209000000000000E+10  -1.128896200462952E-1    6.681886372268580E-1
 1.210000000000000E+10   2.711837386356323E-1    6.249541377954483E-1
 1.211000000000000E+10   5.672385782845111E-1    3.896940566556568E-1
 1.212000000000000E+10   6.878659528055583E-1    2.861112140592533E-2
 1.213000000000000E+10   5.923953638658186E-1   -3.429261950514511E-1
 1.214000000000000E+10   3.097900787792754E-1   -6.061360995072188E-1
 1.215000000000000E+10  -7.172640000423804E-2   -6.759474190130450E-1
 1.216000000000000E+10  -4.274018962981321E-1   -5.212918546700416E-1
 1.217000000000000E+10  -6.424034747790723E-1   -1.948411234980141E-1
 1.218000000000000E+10  -6.431306096713684E-1    1.977449391029705E-1
 1.219000000000000E+10  -4.285893064698189E-1    5.253912615970886E-1
 1.220000000000000E+10  -7.249351142970058E-2    6.805558349433402E-1
 1.221000000000000E+10   3.134486077914669E-1    6.123689182636596E-1
 1.222000000000000E+10   5.977337609132253E-1    3.485032242559662E-1
 1.223000000000000E+10   6.942094779698955E-1   -2.408573161950594E-2
 1.224000000000000E+10   5.746660491477003E-1   -3.890937273251015E-1
 1.225000000000000E+10   2.754883617723850E-1   -6.317769656694026E-1
 1.226000000000000E+10  -1.124821090658874E-1   -6.775828591013812E-1
 1.227000000000000E+10  -4.626327439991801E-1   -5.046308338401686E-1
 1.228000000000000E+10  -6.607965095695777E-1   -1.676192190337207E-1
 1.229000000000000E+10  -6.413721778289704E-1    2.250067959689072E-1
 1.230000000000000E+10  -4.074037556110748E-1    5.460367631454002E-1
 1.231000000000000E+10  -4.101741072090766E-2    6.876945994824254E-1
 1.232000000000000E+10   3.451880024064567E-1    6.032327534213063E-1
 1.233000000000000E+10   6.220041834982828E-1    3.152990553429735E-1
 1.234000000000000E+10   6.923936874607224E-1   -8.023170482639372E-2
 1.235000000000000E+10   5.338303399179385E-1   -4.488949373058525E-1
 1.236000000000000E+10   2.015271085844675E-1   -6.645694719555530E-1
 1.237000000000000E+10  -1.948656952635744E-1   -6.622785760290034E-1
 1.238000000000000E+10  -5.271178598932548E-1   -4.430918446308532E-1
 1.239000000000000E+10  -6.858722792373473E-1   -7.576231612724164E-2
 1.240000000000000E+10  -6.154425265391114E-1    3.188779360718650E-1
 1.241000000000000E+10  -3.349726197986100E-1    6.077796072034880E-1
 1.242000000000000E+10   6.036426006729984E-2    6.936993586063765E-1
 1.243000000000000E+10   4.375751771721093E-1    5.452092442379157E-1
 1.244000000000000E+10   6.680353917396091E-1    2.106757318168860E-1
 1.245000000000000E+10   6.703449003892199E-1   -1.970463078757513E-1
 1.246000000000000E+10   4.395928540331572E-1   -5.412963634002427E-1
 1.247000000000000E+10   5.613201755654763E-2   -6.968163948149252E-1
 1.248000000000000E+10  -3.466107610714058E-1   -6.068198369518255E-1
 1.249000000000000E+10  -6.247494674880314E-1   -3.033488332041086E-1
 1.250000000000000E+10  -6.809206390678745E-1    1.041141886303817E-1
