#  HZ   S   RI   R     50.00 
! Rohde & Schwarz Vector Network Analyzer 
! Rohde-Schwarz,ZNA43-4Port,1332450044101932,2.92
! Created: UTC 6/2/2026, 7:36:31 AM
! freq[Hz]                re:S11                  im:S11
 8.000000000000000E9    -4.683565703134024E-3   -2.299818759017319E-1
 8.010000000000000E9    -1.252154587279927E-1   -2.132068182661606E-1
 8.020000000000000E9    -2.284634905527484E-1   -1.268542426942266E-1
 8.030000000000000E9    -2.748388427847768E-1    1.395810842821839E-2
 8.040000000000000E9    -2.375528845264348E-1    1.704227881200854E-1
 8.050000000000000E9    -1.172865574952856E-1    2.909906400398642E-1
 8.060000000000000E9     5.293193157270158E-2    3.248093646360978E-1
 8.070000000000000E9     2.230266943362242E-1    2.595064634346942E-1
 8.080000000000000E9     3.371071649447639E-1    1.084896921930180E-1
 8.090000000000000E9     3.546944102008188E-1   -8.569156541174613E-2
 8.100000000000000E9     2.640522333316517E-1   -2.631309281563921E-1
 8.110000000000000E9     8.267297289139677E-2   -3.655619280119841E-1
 8.120000000000000E9    -1.297614843383627E-1   -3.548297603827970E-1
 8.130000000000000E9    -3.046348625950699E-1   -2.296893231698350E-1
 8.140000000000000E9    -3.837233605480574E-1   -2.873321801637170E-2
 8.150000000000000E9    -3.403466312843021E-1    1.833225640419580E-1
 8.160000000000000E9    -1.852404861961273E-1    3.463705949816428E-1
 8.170000000000000E9     2.983781423166090E-2    3.996298341775938E-1
 8.180000000000000E9     2.370418228877101E-1    3.279726997271103E-1
 8.190000000000000E9     3.709980884838275E-1    1.547540677516084E-1
 8.200000000000000E9     3.893167083681424E-1   -6.496064465113509E-2
 8.210000000000000E9     2.939804990030536E-1   -2.602308705476504E-1
 8.220000000000000E9     1.091943275672793E-1   -3.685988260596750E-1
 8.230000000000000E9    -1.038818797890381E-1   -3.563975076025494E-1
 8.240000000000000E9    -2.756625141232641E-1   -2.286458789759197E-1
 8.250000000000000E9    -3.502617292490786E-1   -2.809062920694417E-2
 8.260000000000000E9    -3.026670660939330E-1    1.682250952872329E-1
 8.270000000000000E9    -1.549549647200709E-1    3.029010236327705E-1
 8.280000000000000E9     3.930113538818868E-2    3.317805271437056E-1
 8.290000000000000E9     2.123979844115279E-1    2.503291986118109E-1
 8.300000000000000E9     3.080400693526599E-1    9.117956586055229E-2
 8.310000000000000E9     2.879171226778366E-1   -8.729379029495539E-2
 8.320000000000000E9     1.833006242880464E-1   -2.117676916246762E-1
 8.330000000000000E9     3.205854954122251E-2   -2.624842783590906E-1
 8.340000000000000E9    -1.162932529296662E-1   -2.173778123555862E-1
 8.350000000000000E9    -2.045656899206952E-1   -9.918500739994224E-2
 8.360000000000000E9    -2.063303836277392E-1    4.844784819281863E-2
 8.370000000000000E9    -1.266730003861206E-1    1.612502797131719E-1
 8.380000000000000E9    -4.261783124669025E-3    2.007458033355623E-1
 8.390000000000000E9     1.094674821246502E-1    1.596352701866683E-1
 8.400000000000000E9     1.711414030282311E-1    6.164768392854354E-2
 8.410000000000000E9     1.675130326850318E-1   -4.699341728004015E-2
 8.420000000000000E9     1.010030388851663E-1   -1.228893540861868E-1
 8.430000000000000E9     6.065739918234548E-3   -1.372719911181942E-1
 8.440000000000000E9    -7.368894590282461E-2   -8.873852752209840E-2
 8.450000000000000E9    -1.040766643815327E-1   -2.767181425409939E-3
 8.460000000000000E9    -7.076943296444997E-2    7.311336022832660E-2
 8.470000000000000E9     4.835195981275111E-3    1.083520588145134E-1
 8.480000000000000E9     8.629617291311485E-2    8.569437175654823E-2
 8.490000000000000E9     1.346744514036763E-1    1.520309441443330E-2
 8.500000000000000E9     1.263993661023983E-1   -7.102127269417502E-2
 8.510000000000000E9     5.792428369480035E-2   -1.357632545627770E-1
 8.520000000000000E9    -3.938599651693803E-2   -1.447844431822360E-1
 8.530000000000000E9    -1.243000309454418E-1   -8.961668895938477E-2
 8.540000000000000E9    -1.577853849316459E-1    1.028089929373737E-2
 8.550000000000000E9    -1.210461069838002E-1    1.140730282890323E-1
 8.560000000000000E9    -2.784973138461796E-2    1.840361556733567E-1
 8.570000000000000E9     9.041591022316829E-2    1.835145382440462E-1
 8.580000000000000E9     1.876170794298510E-1    1.098569041351402E-1
 8.590000000000000E9     2.243864582310423E-1   -1.190452277088883E-2
 8.600000000000000E9     1.829888956461970E-1   -1.376179317063139E-1
 8.610000000000000E9     8.018055140417987E-2   -2.150995523106194E-1
 8.620000000000000E9    -5.269473694370153E-2   -2.166274182788399E-1
 8.630000000000000E9    -1.654805147100777E-1   -1.383088631976431E-1
 8.640000000000000E9    -2.147206395268466E-1   -6.790474965677902E-3
 8.650000000000000E9    -1.803737004231900E-1    1.303597610457227E-1
 8.660000000000000E9    -6.745911497789429E-2    2.177616782854345E-1
 8.670000000000000E9     7.776938682588679E-2    2.247001598571297E-1
 8.680000000000000E9     2.021043974662061E-1    1.464392571671549E-1
 8.690000000000000E9     2.591604975097632E-1    1.047860166662015E-2
 8.700000000000000E9     2.272114975277597E-1   -1.336313766268918E-1
 8.710000000000000E9     1.130081565034546E-1   -2.358352169174313E-1
 8.720000000000000E9    -3.959773398839022E-2   -2.545905065848852E-1
 8.730000000000000E9    -1.756655018786409E-1   -1.814006466397894E-1
 8.740000000000000E9    -2.439792953066651E-1   -4.135618946990254E-2
 8.750000000000000E9    -2.166638992157662E-1    1.138213115532268E-1
 8.760000000000000E9    -1.064981745915978E-1    2.293411594978048E-1
 8.770000000000000E9     4.941031766660841E-2    2.568018451637271E-1
 8.780000000000000E9     1.915572393532064E-1    1.860672278625098E-1
 8.790000000000000E9     2.661000677097116E-1    4.311638816871946E-2
 8.800000000000000E9     2.433600885908073E-1   -1.197964253511730E-1
 8.810000000000000E9     1.335692589959112E-1   -2.360749660770617E-1
 8.820000000000000E9    -2.734132332271428E-2   -2.642414010634128E-1
 8.830000000000000E9    -1.771867175702694E-1   -1.900152678547782E-1
 8.840000000000000E9    -2.569840646128129E-1   -3.972245765054969E-2
 8.850000000000000E9    -2.348620488162694E-1    1.303514547595057E-1
 8.860000000000000E9    -1.124552282506408E-1    2.528774370267952E-1
 8.870000000000000E9     6.121184563522031E-2    2.826926326185903E-1
 8.880000000000000E9     2.224532928687366E-1    2.065417769888413E-1
 8.890000000000000E9     3.116773575911018E-1    5.045256993911882E-2
 8.900000000000000E9     2.950832206713928E-1   -1.298244675289953E-1
 8.910000000000000E9     1.735593371805679E-1   -2.737716894557875E-1
 8.920000000000000E9    -9.822426409220019E-3   -3.236612288703856E-1
 8.930000000000000E9    -1.906398632128521E-1   -2.593308782638863E-1
 8.940000000000000E9    -3.033991215124321E-1   -1.012316263810952E-1
 8.950000000000000E9    -3.054425441749953E-1    9.522496743455471E-2
 8.960000000000000E9    -1.994260030463127E-1    2.627302613175995E-1
 8.970000000000000E9    -1.767561171991355E-2    3.390859416591964E-1
 8.980000000000000E9     1.758956129723677E-1    2.980893631485114E-1
 8.990000000000000E9     3.147243494924450E-1    1.540476034166753E-1
 9.000000000000000E9     3.518340041186500E-1   -4.494504129484825E-2
 9.010000000000000E9     2.750558485758248E-1   -2.256308867881436E-1
 9.020000000000000E9     1.075303626044603E-1   -3.333250500104536E-1
 9.030000000000000E9    -9.494928346201090E-2   -3.289204660418016E-1
 9.040000000000000E9    -2.622566375668920E-1   -2.120026814097721E-1
 9.050000000000000E9    -3.365823267840671E-1   -2.327051383934065E-2
 9.060000000000000E9    -2.881274463686725E-1    1.723479438349478E-1
 9.070000000000000E9    -1.398288801144562E-1    3.079816044716679E-1
 9.080000000000000E9     5.742929781870718E-2    3.393957621241019E-1
 9.090000000000000E9     2.375961544918999E-1    2.574514452524713E-1
 9.100000000000000E9     3.403626721006578E-1    9.128479447489936E-2
 9.110000000000000E9     3.319397121331314E-1   -1.062586646739323E-1
 9.120000000000000E9     2.169032248256380E-1   -2.644623860479464E-1
 9.130000000000000E9     3.586642455393125E-2   -3.307777798577700E-1
 9.140000000000000E9    -1.482554205265379E-1   -2.848261999855586E-1
 9.150000000000000E9    -2.722540759233976E-1   -1.450469515517674E-1
 9.160000000000000E9    -2.995750617622975E-1    4.005057349067718E-2
 9.170000000000000E9    -2.202293060970388E-1    2.019704331074681E-1
 9.180000000000000E9    -6.700622836416285E-2    2.859441478368679E-1
 9.190000000000000E9     1.026663138178358E-1    2.665624599608675E-1
 9.200000000000000E9     2.285440843110794E-1    1.559794290487525E-1
 9.210000000000000E9     2.673259071783620E-1    3.927077175203817E-3
 9.220000000000000E9     2.111983851671405E-1   -1.364824208862710E-1
 9.230000000000000E9     8.719692854196699E-2   -2.139026505466208E-1
 9.240000000000000E9    -5.342502442052222E-2   -2.032007919753606E-1
 9.250000000000000E9    -1.554459367416327E-1   -1.149246547417866E-1
 9.260000000000000E9    -1.774973487217373E-1    9.696748843296504E-3
 9.270000000000000E9    -1.207065018399661E-1    1.172510601445495E-1
 9.280000000000000E9    -1.435026377438685E-2    1.645543668399101E-1
 9.290000000000000E9     9.324370586074487E-2    1.359171949110683E-1
 9.300000000000000E9     1.548712566656070E-1    4.846035141479133E-2
 9.310000000000000E9     1.445982600994106E-1   -5.955061675352940E-2
 9.320000000000000E9     6.822555245741069E-2   -1.342220580008639E-1
 9.330000000000000E9    -3.802478713059925E-2   -1.406843121819113E-1
 9.340000000000000E9    -1.237767371396495E-1   -7.477686707000153E-2
 9.350000000000000E9    -1.467097511020586E-1    3.515551236373658E-2
 9.360000000000000E9    -9.747419220174611E-2    1.414841390755240E-1
 9.370000000000000E9     1.212487592352246E-2    1.916479079923650E-1
 9.380000000000000E9     1.361496346635143E-1    1.579289708327637E-1
 9.390000000000000E9     2.200013634918127E-1    4.732763329474687E-2
 9.400000000000000E9     2.233574343703011E-1   -1.001693214686885E-1
 9.410000000000000E9     1.323380059109095E-1   -2.215082195135610E-1
 9.420000000000000E9    -2.205845225659034E-2   -2.683683429604901E-1
 9.430000000000000E9    -1.837082069113830E-1   -2.136481516225889E-1
 9.440000000000000E9    -2.892878233622366E-1   -6.920234093553433E-2
 9.450000000000000E9    -2.936821896433218E-1    1.164483054805473E-1
 9.460000000000000E9    -1.840090262030497E-1    2.775444554936527E-1
 9.470000000000000E9     3.184871225296388E-3    3.517612641523682E-1
 9.480000000000000E9     2.053628245680594E-1    3.078911377138853E-1
 9.490000000000000E9     3.530500209287885E-1    1.551268060617407E-1
 9.500000000000000E9     3.922564639819272E-1   -5.977729154247433E-2
 9.510000000000000E9     3.026375650022287E-1   -2.713649147400407E-1
 9.520000000000000E9     1.082846462026371E-1   -4.020650528487069E-1
 9.530000000000000E9    -1.296270536935799E-1   -4.038254494898069E-1
 9.540000000000000E9    -3.324493021961021E-1   -2.717867139805215E-1
 9.550000000000000E9    -4.325889069313700E-1   -4.550940273719187E-2
 9.560000000000000E9    -3.989355111650400E-1    2.010462497412284E-1
 9.570000000000000E9    -2.362006404804374E-1    3.917956831412591E-1
 9.580000000000000E9     6.921926203383057E-3    4.650655841901175E-1
 9.590000000000000E9     2.545895233995019E-1    3.944407106145141E-1
 9.600000000000000E9     4.278853163645953E-1    1.997610473555458E-1
 9.610000000000000E9     4.707439534467061E-1   -5.495486847744332E-2
 9.620000000000000E9     3.680865584991384E-1   -2.951229833123667E-1
 9.630000000000000E9     1.498032894796005E-1   -4.435593155864187E-1
 9.640000000000000E9    -1.158728269531250E-1   -4.509196157115065E-1
 9.650000000000000E9    -3.437727483964199E-1   -3.137657903268822E-1
 9.660000000000000E9    -4.582498626399040E-1   -7.629361399820649E-2
 9.670000000000000E9    -4.274428586284177E-1    1.852457681325053E-1
 9.680000000000000E9    -2.629529891608525E-1    3.884330613279344E-1
 9.690000000000000E9    -1.837279476606956E-2    4.719883587042493E-1
 9.700000000000000E9     2.302376866602373E-1    4.132900125815765E-1
 9.710000000000000E9     4.089951703971260E-1    2.268786007140110E-1
 9.720000000000000E9     4.618075887940736E-1   -2.395193846180480E-2
 9.730000000000000E9     3.729744438920890E-1   -2.615355269122963E-1
 9.740000000000000E9     1.715712487346085E-1   -4.108432307038678E-1
 9.750000000000000E9    -7.613549725069758E-2   -4.246414719031747E-1
 9.760000000000000E9    -2.929377804191923E-1   -3.035171555707342E-1
 9.770000000000000E9    -4.048919449593096E-1   -8.890391441685731E-2
 9.780000000000000E9    -3.808591615924408E-1    1.462790379560755E-1
 9.790000000000000E9    -2.339131806816542E-1    3.259041174726342E-1
 9.800000000000000E9    -1.525025510073771E-2    3.936208524527167E-1
 9.810000000000000E9     1.977408157917180E-1    3.347209294647382E-1
 9.820000000000000E9     3.382659595251201E-1    1.701215662467611E-1
 9.830000000000000E9     3.611917100685990E-1   -4.061011227446788E-2
 9.840000000000000E9     2.633884219472826E-1   -2.233937882113201E-1
 9.850000000000000E9     8.378108981635066E-2   -3.162545723279040E-1
 9.860000000000000E9    -1.063601258059315E-1   -2.890786538459983E-1
 9.870000000000000E9    -2.407096154908495E-1   -1.601873880002867E-1
 9.880000000000000E9    -2.728121897364057E-1    1.623280149166612E-2
 9.890000000000000E9    -1.980108439857997E-1    1.701782410546779E-1
 9.900000000000000E9    -5.397989985413512E-2    2.445650632559810E-1
 9.910000000000000E9     9.989857522178322E-2    2.130299807553188E-1
 9.920000000000000E9     1.983112075205501E-1    9.889852225530786E-2
 9.930000000000000E9     2.043228376293928E-1   -4.503030776268660E-2
 9.940000000000000E9     1.208257952745611E-1   -1.551958145980193E-1
 9.950000000000000E9    -1.078285481600587E-2   -1.836857914424064E-1
 9.960000000000000E9    -1.323905645116522E-1   -1.227890791602662E-1
 9.970000000000000E9    -1.841223790921248E-1    8.054769009843805E-4
 9.980000000000000E9    -1.423579928894366E-1    1.285595187069927E-1
 9.990000000000000E9    -2.513806191468936E-2    2.004999646507331E-1
 1.000000000000000E+10   1.162899311860860E-1    1.808378941271858E-1
 1.001000000000000E+10   2.153885616889145E-1    7.738946974697081E-2
 1.002000000000000E+10   2.288590394828284E-1   -7.313158483871550E-2
 1.003000000000000E+10   1.432647544805702E-1   -2.069232831509155E-1
 1.004000000000000E+10  -1.246064473708725E-2   -2.653431983606178E-1
 1.005000000000000E+10  -1.791961069167061E-1   -2.183671558681790E-1
 1.006000000000000E+10  -2.869244662782681E-1   -7.522288927481964E-2
 1.007000000000000E+10  -2.926460331645013E-1    1.118129595187066E-1
 1.008000000000000E+10  -1.866094803160561E-1    2.738867126409780E-1
 1.009000000000000E+10  -2.311697890724080E-3    3.483622454331295E-1
 1.010000000000000E+10   1.958677928697232E-1    3.040346682088182E-1
 1.011000000000000E+10   3.419960160883256E-1    1.483337033631392E-1
 1.012000000000000E+10   3.781993981223153E-1   -6.665601337631852E-2
 1.013000000000000E+10   2.872359618115615E-1   -2.693925272687419E-1
 1.014000000000000E+10   9.474957705755914E-2   -3.893329654623726E-1
 1.015000000000000E+10  -1.369488390111251E-1   -3.812848632933952E-1
 1.016000000000000E+10  -3.332941007066147E-1   -2.475510117133806E-1
 1.017000000000000E+10  -4.236883529385719E-1   -2.539039188534265E-2
 1.018000000000000E+10  -3.765034864292702E-1    2.120840475962766E-1
 1.019000000000000E+10  -2.056324357410445E-1    3.876351879205148E-1
 1.020000000000000E+10   3.651607760896967E-2    4.442640889011855E-1
 1.021000000000000E+10   2.708829355162706E-1    3.628317181622847E-1
 1.022000000000000E+10   4.261019551842075E-1    1.649729794981489E-1
 1.023000000000000E+10   4.500897573789995E-1   -8.941913581330591E-2
 1.024000000000000E+10   3.314073063296443E-1   -3.196574139848019E-1
 1.025000000000000E+10   1.054349678488870E-1   -4.511168194736179E-1
 1.026000000000000E+10  -1.539646958932510E-1   -4.348471218298336E-1
 1.027000000000000E+10  -3.645253726616559E-1   -2.800814607977125E-1
 1.028000000000000E+10  -4.592068932850110E-1   -3.531625798667399E-2
 1.029000000000000E+10  -4.069139458090680E-1    2.222736512934395E-1
 1.030000000000000E+10  -2.238087414826383E-1    4.094351446104811E-1
 1.031000000000000E+10   3.461688737673910E-2    4.639769409094637E-1
 1.032000000000000E+10   2.818980149877489E-1    3.703953267711328E-1
 1.033000000000000E+10   4.387321927957721E-1    1.591741318257834E-1
 1.034000000000000E+10   4.557994261388797E-1   -1.020211543974174E-1
 1.035000000000000E+10   3.269093433782373E-1   -3.296070070331275E-1
 1.036000000000000E+10   9.201478538754120E-2   -4.538052265133196E-1
 1.037000000000000E+10  -1.713185820208762E-1   -4.294976332340112E-1
 1.038000000000000E+10  -3.759373897307767E-1   -2.649112083591006E-1
 1.039000000000000E+10  -4.542223249526922E-1   -1.668910435412477E-2
 1.040000000000000E+10  -3.828844862849751E-1    2.313090684675777E-1
 1.041000000000000E+10  -1.925008900590882E-1    4.001309007243698E-1
 1.042000000000000E+10   5.608658897058385E-2    4.346775217362348E-1
 1.043000000000000E+10   2.804630063019461E-1    3.262151266496470E-1
 1.044000000000000E+10   4.060577698419436E-1    1.118359236847766E-1
 1.045000000000000E+10   3.905729129994328E-1   -1.352141713926431E-1
 1.046000000000000E+10   2.415698669617797E-1   -3.250745580004614E-1
 1.047000000000000E+10   1.161519785036760E-2   -3.948742792246905E-1
 1.048000000000000E+10  -2.151981352889887E-1   -3.215371345590090E-1
 1.049000000000000E+10  -3.580145801304281E-1   -1.344816825435173E-1
 1.050000000000000E+10  -3.682535687733313E-1    9.657577947400028E-2
 1.051000000000000E+10  -2.403440486175818E-1    2.851228501197322E-1
 1.052000000000000E+10  -2.968731809412768E-2    3.662110790751663E-1
 1.053000000000000E+10   1.859306141159720E-1    3.121051714592617E-1
 1.054000000000000E+10   3.271226698466006E-1    1.461951253906744E-1
 1.055000000000000E+10   3.433123909848995E-1   -6.763281886390853E-2
 1.056000000000000E+10   2.292140018001473E-1   -2.534345981883726E-1
 1.057000000000000E+10   2.941642402957831E-2   -3.352349576288648E-1
 1.058000000000000E+10  -1.781505206963061E-1   -2.808732212366140E-1
 1.059000000000000E+10  -3.093758807209855E-1   -1.118445228553292E-1
 1.060000000000000E+10  -3.105919692614756E-1    1.019379261040734E-1
 1.061000000000000E+10  -1.880690353935009E-1    2.742873480153875E-1
 1.062000000000000E+10   1.268026393294494E-2    3.369133093651558E-1
 1.063000000000000E+10   2.114783831314409E-1    2.664536216423142E-1
 1.064000000000000E+10   3.309068264187381E-1    8.971833485588021E-2
 1.065000000000000E+10   3.226161789822822E-1   -1.265114617904946E-1
 1.066000000000000E+10   1.865105152661718E-1   -2.926968777804387E-1
 1.067000000000000E+10  -2.727785533965685E-2   -3.450442767848976E-1
 1.068000000000000E+10  -2.341404464099075E-1   -2.573451462831594E-1
 1.069000000000000E+10  -3.497880230611408E-1   -6.095972474989648E-2
 1.070000000000000E+10  -3.257195683667823E-1    1.677140044755522E-1
 1.071000000000000E+10  -1.630472831567263E-1    3.380052434097588E-1
 1.072000000000000E+10   7.151361088234323E-2    3.833890380516934E-1
 1.073000000000000E+10   2.910229117411000E-1    2.841388868787483E-1
 1.074000000000000E+10   4.134197332199998E-1    7.502236927584689E-2
 1.075000000000000E+10   3.924918737884431E-1   -1.690667666129963E-1
 1.076000000000000E+10   2.339666548593990E-1   -3.668905544871783E-1
 1.077000000000000E+10  -1.068652327020184E-2   -4.410133520267868E-1
 1.078000000000000E+10  -2.575366622254747E-1   -3.617054960523420E-1
 1.079000000000000E+10  -4.171531415447160E-1   -1.515960929818954E-1
 1.080000000000000E+10  -4.275913361233792E-1    1.161814262761452E-1
 1.081000000000000E+10  -2.880097788994253E-1    3.442896485033363E-1
 1.082000000000000E+10  -4.248699043830422E-2    4.514608576741193E-1
 1.083000000000000E+10   2.212641564433934E-1    4.012647679969983E-1
 1.084000000000000E+10   4.139149618349931E-1    2.117257916945249E-1
 1.085000000000000E+10   4.705589390126347E-1   -5.531426288923353E-2
 1.086000000000000E+10   3.672259649980842E-1   -3.055777512801433E-1
 1.087000000000000E+10   1.384994205147119E-1   -4.583396589509013E-1
 1.088000000000000E+10  -1.400691528966136E-1   -4.582286862902010E-1
 1.089000000000000E+10  -3.732506000192322E-1   -3.026179634036870E-1
 1.090000000000000E+10  -4.811189651546857E-1   -4.352134752015976E-2
 1.091000000000000E+10  -4.189009828609638E-1    2.328895963741888E-1
 1.092000000000000E+10  -2.153022814884526E-1    4.309663405934546E-1
 1.093000000000000E+10   6.276911160192980E-2    4.851798431853747E-1
 1.094000000000000E+10   3.232762440004455E-1    3.773898292506944E-1
 1.095000000000000E+10   4.790472818386139E-1    1.436349213521865E-1
 1.096000000000000E+10   4.835585750482288E-1   -1.434755372184226E-1
 1.097000000000000E+10   3.296292405710401E-1   -3.854760055892200E-1
 1.098000000000000E+10   6.773478447035040E-2   -5.018175350543373E-1
 1.099000000000000E+10  -2.156129141654774E-1   -4.522845754862947E-1
 1.100000000000000E+10  -4.239807905746240E-1   -2.508230530484529E-1
 1.101000000000000E+10  -4.905899835023127E-1    3.073741324833176E-2
 1.102000000000000E+10  -3.859255814978337E-1    3.005304376655962E-1
 1.103000000000000E+10  -1.476505455706271E-1    4.626091121530898E-1
 1.104000000000000E+10   1.381558726178448E-1    4.630175114727186E-1
 1.105000000000000E+10   3.748080367874229E-1    3.066110875999695E-1
 1.106000000000000E+10   4.815541121407662E-1    5.026569981906658E-2
 1.107000000000000E+10   4.274105589837575E-1   -2.225069903460026E-1
 1.108000000000000E+10   2.286365971537908E-1   -4.203171542976302E-1
 1.109000000000000E+10  -4.884012724077568E-2   -4.724646875792811E-1
 1.110000000000000E+10  -3.069403030950391E-1   -3.583918000954057E-1
 1.111000000000000E+10  -4.463870886028599E-1   -1.128525014264843E-1
 1.112000000000000E+10  -4.218530830820563E-1    1.684973746673279E-1
 1.113000000000000E+10  -2.441391429433639E-1    3.846333879457217E-1
 1.114000000000000E+10   2.152045849123601E-2    4.601406328027822E-1
 1.115000000000000E+10   2.795730380630677E-1    3.697699561099654E-1
 1.116000000000000E+10   4.438940936624476E-1    1.453803770982278E-1
 1.117000000000000E+10   4.526869259357703E-1   -1.319615874124763E-1
 1.118000000000000E+10   3.016351042234836E-1   -3.645391876715777E-1
 1.119000000000000E+10   4.301055402143316E-2   -4.684326085926143E-1
 1.120000000000000E+10  -2.312754372063158E-1   -4.028937356252463E-1
 1.121000000000000E+10  -4.228444850950859E-1   -1.944667157112887E-1
 1.122000000000000E+10  -4.580214963183377E-1    8.722740441620672E-2
 1.123000000000000E+10  -3.229442953268556E-1    3.373721199545403E-1
 1.124000000000000E+10  -6.903149727645516E-2    4.640648532558456E-1
 1.125000000000000E+10   2.104604200514540E-1    4.248415398883509E-1
 1.126000000000000E+10   4.154184409208075E-1    2.389414549395472E-1
 1.127000000000000E+10   4.797334527981070E-1   -3.031069254746181E-2
 1.128000000000000E+10   3.817523300516696E-1   -2.919107452943099E-1
 1.129000000000000E+10   1.508386175416976E-1   -4.560529452451022E-1
 1.130000000000000E+10  -1.354673813220280E-1   -4.604026554696576E-1
 1.131000000000000E+10  -3.698787898491000E-1   -2.919253096333547E-1
 1.132000000000000E+10  -4.669275087679947E-1   -1.633309494180872E-2
 1.133000000000000E+10  -3.911266167402435E-1    2.641287547357252E-1
 1.134000000000000E+10  -1.733220833108733E-1    4.498411613880659E-1
 1.135000000000000E+10   1.084919503042175E-1    4.784034297211359E-1
 1.136000000000000E+10   3.629788242748460E-1    3.410620824388660E-1
 1.137000000000000E+10   4.988556042330752E-1    8.621434295068822E-2
 1.138000000000000E+10   4.693015726338478E-1   -2.019169080669718E-1
 1.139000000000000E+10   2.809140443763092E-1   -4.248458362648997E-1
 1.140000000000000E+10  -4.221671212771003E-3   -5.020894647406788E-1
 1.141000000000000E+10  -2.871257816003384E-1   -4.069452089758663E-1
 1.142000000000000E+10  -4.645581142450274E-1   -1.659668304431016E-1
 1.143000000000000E+10  -4.714522237080239E-1    1.342453662560726E-1
 1.144000000000000E+10  -3.044556803745129E-1    3.848292675305328E-1
 1.145000000000000E+10  -2.495672725855129E-2    4.955429717034876E-1
 1.146000000000000E+10   2.622131030578351E-1    4.321912297578898E-1
 1.147000000000000E+10   4.623153239679862E-1    2.165341950496316E-1
 1.148000000000000E+10   5.071978537292435E-1   -7.523177355770415E-2
 1.149000000000000E+10   3.817073292114343E-1   -3.442641299236707E-1
 1.150000000000000E+10   1.261996858683949E-1   -4.987188778805219E-1
 1.151000000000000E+10  -1.713619830055513E-1   -4.746465435213317E-1
 1.152000000000000E+10  -4.077068659700087E-1   -2.818837830762052E-1
 1.153000000000000E+10  -4.927529665691036E-1    1.258630208111723E-2
 1.154000000000000E+10  -3.960388988632451E-1    2.991770840800361E-1
 1.155000000000000E+10  -1.574616789385163E-1    4.754516448456948E-1
 1.156000000000000E+10   1.440836615784788E-1    4.828911200540612E-1
 1.157000000000000E+10   3.959780045193127E-1    3.221376558275629E-1
 1.158000000000000E+10   5.137801245694651E-1    4.809159259932615E-2
 1.159000000000000E+10   4.543191155751986E-1   -2.452387696900815E-1
 1.160000000000000E+10   2.357037520941479E-1   -4.522675207791845E-1
 1.161000000000000E+10  -6.501800816255807E-2   -5.009551844634323E-1
 1.162000000000000E+10  -3.394866086864244E-1   -3.649150548951212E-1
 1.163000000000000E+10  -4.835850295696096E-1   -9.230020983677202E-2
 1.164000000000000E+10  -4.404356774995378E-1    2.150864945891426E-1
 1.165000000000000E+10  -2.249632225106518E-1    4.399356721835567E-1
 1.166000000000000E+10   7.206656257649040E-2    4.987740525425695E-1
 1.167000000000000E+10   3.478487992887174E-1    3.723591435808436E-1
 1.168000000000000E+10   5.010771332964092E-1    1.090944978578021E-1
 1.169000000000000E+10   4.778906825421652E-1   -1.957038770074586E-1
 1.170000000000000E+10   2.863934896227969E-1   -4.343827593479366E-1
 1.171000000000000E+10  -9.261378308468822E-3   -5.133454682379250E-1
 1.172000000000000E+10  -3.031122647008229E-1   -4.070698171017390E-1
 1.173000000000000E+10  -4.857806900280310E-1   -1.487159899091716E-1
 1.174000000000000E+10  -4.859706271108651E-1    1.673489227765704E-1
 1.175000000000000E+10  -3.040747253677399E-1    4.216183439042328E-1
 1.176000000000000E+10  -2.651332597791573E-3    5.258548722544580E-1
 1.177000000000000E+10   3.008365817855616E-1    4.412819046426735E-1
 1.178000000000000E+10   5.022217602182263E-1    2.023760149828090E-1
 1.179000000000000E+10   5.334586582515096E-1   -1.086594869469101E-1
 1.180000000000000E+10   3.805666971359714E-1   -3.840920274258571E-1
 1.181000000000000E+10   9.518634043326314E-2   -5.305436146064897E-1
 1.182000000000000E+10  -2.243735258534798E-1   -4.846057095090137E-1
 1.183000000000000E+10  -4.591556871007528E-1   -2.617023522821506E-1
 1.184000000000000E+10  -5.238605273067738E-1    5.595603561466084E-2
 1.185000000000000E+10  -3.969027880391865E-1    3.547404580030800E-1
 1.186000000000000E+10  -1.303897556045799E-1    5.262854830006028E-1
 1.187000000000000E+10   1.853047382710867E-1    5.186450997819531E-1
 1.188000000000000E+10   4.444676841773089E-1    3.380980961252567E-1
 1.189000000000000E+10   5.642090978754479E-1    4.569688507391074E-2
 1.190000000000000E+10   5.080462787713882E-1   -2.651723223427082E-1
 1.191000000000000E+10   2.869398891637074E-1   -4.897610644320443E-1
 1.192000000000000E+10  -2.515165091360756E-2   -5.592455649230200E-1
 1.193000000000000E+10  -3.286441716712776E-1   -4.464600490301159E-1
 1.194000000000000E+10  -5.214164950495530E-1   -1.837856888059192E-1
 1.195000000000000E+10  -5.350084237625693E-1    1.409313791883484E-1
 1.196000000000000E+10  -3.608032005856567E-1    4.199166668039550E-1
 1.197000000000000E+10  -6.277258259641706E-2    5.556497757519104E-1
 1.198000000000000E+10   2.581362430540851E-1    5.053224549159624E-1
 1.199000000000000E+10   4.974962946787083E-1    2.882843516842889E-1
 1.200000000000000E+10   5.782532803941163E-1   -2.540540922708450E-2
 1.201000000000000E+10   4.762742214488375E-1   -3.374997425122230E-1
 1.202000000000000E+10   2.163690520349281E-1   -5.439329453748482E-1
 1.203000000000000E+10  -1.181523742637485E-1   -5.700132816289843E-1
 1.204000000000000E+10  -4.119661656490263E-1   -4.023777524825685E-1
 1.205000000000000E+10  -5.625219772659323E-1   -9.752512052438854E-2
 1.206000000000000E+10  -5.228476613399375E-1    2.360636567209333E-1
 1.207000000000000E+10  -3.040416171923617E-1    4.887233402317583E-1
 1.208000000000000E+10   1.968855672922738E-2    5.773059294439432E-1
 1.209000000000000E+10   3.405543700167533E-1    4.711833966081626E-1
 1.210000000000000E+10   5.498361180812622E-1    2.052177296979576E-1
 1.211000000000000E+10   5.729576470632362E-1   -1.277476744940466E-1
 1.212000000000000E+10   4.023852993673701E-1   -4.198560787599068E-1
 1.213000000000000E+10   9.463251141578850E-2   -5.678575039024426E-1
 1.214000000000000E+10  -2.448531044749676E-1   -5.179749076526123E-1
 1.215000000000000E+10  -4.966564926481688E-1   -2.854316118921026E-1
 1.216000000000000E+10  -5.682862589889824E-1    5.422639589114522E-2
 1.217000000000000E+10  -4.341263367743699E-1    3.755391188893872E-1
 1.218000000000000E+10  -1.420321255279626E-1    5.628496725932894E-1
 1.219000000000000E+10   2.018980288947455E-1    5.509902764118372E-1
 1.220000000000000E+10   4.762807632077386E-1    3.478784638359737E-1
 1.221000000000000E+10   5.907836300558565E-1    2.244689068132291E-2
 1.222000000000000E+10   5.028882482406312E-1   -3.085120035643451E-1
 1.223000000000000E+10   2.436034290344748E-1   -5.318870710202649E-1
 1.224000000000000E+10  -9.826563815866582E-2   -5.684257077112751E-1
 1.225000000000000E+10  -4.017427686789419E-1   -4.022578548191617E-1
 1.226000000000000E+10  -5.585141014279081E-1   -9.486275315012545E-2
 1.227000000000000E+10  -5.078990595877961E-1    2.459155808605870E-1
 1.228000000000000E+10  -2.689022345615361E-1    4.951476715396653E-1
 1.229000000000000E+10   7.154219064482421E-2    5.615639316951869E-1
 1.230000000000000E+10   3.892141274492246E-1    4.198236208233447E-1
 1.231000000000000E+10   5.607760874419196E-1    1.249514163855613E-1
 1.232000000000000E+10   5.287522568913957E-1   -2.173587445042900E-1
 1.233000000000000E+10   3.045084335110866E-1   -4.784366471778838E-1
 1.234000000000000E+10  -2.689698487327649E-2   -5.636245246444892E-1
 1.235000000000000E+10  -3.453128713222909E-1   -4.453969526007225E-1
 1.236000000000000E+10  -5.343602094772865E-1   -1.614260492640586E-1
 1.237000000000000E+10  -5.273542488631402E-1    1.804319898141100E-1
 1.238000000000000E+10  -3.243429145711905E-1    4.562392776975773E-1
 1.239000000000000E+10   5.130390112088026E-4    5.622770343969054E-1
 1.240000000000000E+10   3.247145727433125E-1    4.590219967791459E-1
 1.241000000000000E+10   5.326243328797254E-1    1.845355865519162E-1
 1.242000000000000E+10   5.415477028194828E-1   -1.581852428123686E-1
 1.243000000000000E+10   3.492815644860619E-1   -4.411147028299320E-1
 1.244000000000000E+10   2.797124340840075E-2   -5.587323641706199E-1
 1.245000000000000E+10  -3.018893923918157E-1   -4.673613845799884E-1
 1.246000000000000E+10  -5.207954142450864E-1   -2.092059125567618E-1
 1.247000000000000E+10  -5.477810179462386E-1    1.262556817055682E-1
 1.248000000000000E+10  -3.762017498020407E-1    4.152788942500188E-1
 1.249000000000000E+10  -7.045725248249518E-2    5.555785847816426E-1
 1.250000000000000E+10   2.611273119161198E-1    4.997450364434085E-1
