#  HZ   S   RI   R     50.00 
! Rohde & Schwarz Vector Network Analyzer 
! Rohde-Schwarz,ZNA43-4Port,1332450044101932,2.92
! Created: UTC 6/1/2026, 11:40:23 AM
! freq[Hz]                re:S11                  im:S11
 8.000000000000000E9     3.019861833349916E-1   -8.995514674260883E-1
 8.010000000000000E9     8.785254508013282E-2   -9.420577916640468E-1
 8.020000000000000E9    -1.338908537854648E-1   -9.350155317294833E-1
 8.030000000000000E9    -3.482200884384213E-1   -8.780990200176466E-1
 8.040000000000000E9    -5.410404593269816E-1   -7.764140287168468E-1
 8.050000000000000E9    -7.016468316270750E-1   -6.389554863088930E-1
 8.060000000000000E9    -8.237077638219448E-1   -4.761769216643233E-1
 8.070000000000000E9    -9.050682897823842E-1   -2.996275443457504E-1
 8.080000000000000E9    -9.469389409305010E-1   -1.195416140149109E-1
 8.090000000000000E9    -9.531990911182328E-1    5.638997731087154E-2
 8.100000000000000E9    -9.295487981931315E-1    2.216005465546391E-1
 8.110000000000000E9    -8.820605106889551E-1    3.719029361830216E-1
 8.120000000000000E9    -8.159324672191496E-1    5.048343480292630E-1
 8.130000000000000E9    -7.364880046635239E-1    6.195607635884177E-1
 8.140000000000000E9    -6.479547395221790E-1    7.160286765063506E-1
 8.150000000000000E9    -5.531247148447775E-1    7.952204356993742E-1
 8.160000000000000E9    -4.541627488472511E-1    8.576668753004455E-1
 8.170000000000000E9    -3.527469916846096E-1    9.050380904284883E-1
 8.180000000000000E9    -2.500198199510317E-1    9.384138883284082E-1
 8.190000000000000E9    -1.474165735180279E-1    9.594440323037925E-1
 8.200000000000000E9    -4.585086680799984E-2    9.689479405763274E-1
 8.210000000000000E9     5.324199159835888E-2    9.686716078393028E-1
 8.220000000000000E9     1.492624998175497E-1    9.594768605106495E-1
 8.230000000000000E9     2.410767396177387E-1    9.421014588841690E-1
 8.240000000000000E9     3.284953506905997E-1    9.170279395760284E-1
 8.250000000000000E9     4.108083211098509E-1    8.851996316823536E-1
 8.260000000000000E9     4.882591028145019E-1    8.459906856682705E-1
 8.270000000000000E9     5.606309715589558E-1    7.992956215266839E-1
 8.280000000000000E9     6.278484901110584E-1    7.447698588871097E-1
 8.290000000000000E9     6.869114402994656E-1    6.807628142656571E-1
 8.300000000000000E9     7.303379547323580E-1    6.211916295129059E-1
 8.310000000000000E9     7.871297751489645E-1    5.634070057605481E-1
 8.320000000000000E9     8.382605764436069E-1    4.911067791433146E-1
 8.330000000000000E9     8.806731880796898E-1    4.143630409618704E-1
 8.340000000000000E9     9.155532876482900E-1    3.351142972251420E-1
 8.350000000000000E9     9.428089714003410E-1    2.539741951258071E-1
 8.360000000000000E9     9.624036688651526E-1    1.709532034391285E-1
 8.370000000000000E9     9.739080936930604E-1    8.590768296543930E-2
 8.380000000000000E9     9.771028199601312E-1   -7.660136078175529E-4
 8.390000000000000E9     9.717994510987632E-1   -8.897779643147491E-2
 8.400000000000000E9     9.577352542837330E-1   -1.785252779943220E-1
 8.410000000000000E9     9.351806383318725E-1   -2.685570093508690E-1
 8.420000000000000E9     9.040094887970438E-1   -3.577938257910396E-1
 8.430000000000000E9     8.642743315223008E-1   -4.451131515590616E-1
 8.440000000000000E9     8.162729757005289E-1   -5.291653015101058E-1
 8.450000000000000E9     7.602374375219974E-1   -6.085085399844777E-1
 8.460000000000000E9     6.959386288115420E-1   -6.819517991425055E-1
 8.470000000000000E9     6.231718648091376E-1   -7.490057313123810E-1
 8.480000000000000E9     5.420680520091703E-1   -8.085481459816022E-1
 8.490000000000000E9     4.526586261882738E-1   -8.600046536285646E-1
 8.500000000000000E9     3.552650847233075E-1   -9.027914410011815E-1
 8.510000000000000E9     2.507581523813665E-1   -9.348893445915650E-1
 8.520000000000000E9     1.404595329735960E-1   -9.561445872318809E-1
 8.530000000000000E9     2.695667807512074E-2   -9.654981690084854E-1
 8.540000000000000E9    -8.802129860999243E-2   -9.623444561771703E-1
 8.550000000000000E9    -2.022987717378076E-1   -9.461256893004305E-1
 8.560000000000000E9    -3.136642209748789E-1   -9.162105546458837E-1
 8.570000000000000E9    -4.205546140947035E-1   -8.727575158683210E-1
 8.580000000000000E9    -5.217479542799786E-1   -8.156789091322058E-1
 8.590000000000000E9    -6.155949492297315E-1   -7.453742700672543E-1
 8.600000000000000E9    -7.009268542616586E-1   -6.625422341514546E-1
 8.610000000000000E9    -7.765833813215308E-1   -5.685306199996285E-1
 8.620000000000000E9    -8.410093492933498E-1   -4.652361245259137E-1
 8.630000000000000E9    -8.929162789388005E-1   -3.548787041785190E-1
 8.640000000000000E9    -9.313832926891765E-1   -2.395974163872175E-1
 8.650000000000000E9    -9.556010983449283E-1   -1.218017200175283E-1
 8.660000000000000E9    -9.649527454455743E-1   -3.571844227527240E-3
 8.670000000000000E9    -9.594384351658404E-1    1.133663724404745E-1
 8.680000000000000E9    -9.391497159064787E-1    2.274699087470338E-1
 8.690000000000000E9    -9.047602266264567E-1    3.375607369486482E-1
 8.700000000000000E9    -8.568232796695316E-1    4.426182228254244E-1
 8.710000000000000E9    -7.965843790700509E-1    5.413694107532880E-1
 8.720000000000000E9    -7.252805615703560E-1    6.323184050808169E-1
 8.730000000000000E9    -6.450226561927811E-1    7.142141797376441E-1
 8.740000000000000E9    -5.574863103662081E-1    7.858235882539654E-1
 8.750000000000000E9    -4.641365980785969E-1    8.462356128032377E-1
 8.760000000000000E9    -3.663898680354192E-1    8.947703689844159E-1
 8.770000000000000E9    -2.656154994959474E-1    9.310456302265043E-1
 8.780000000000000E9    -1.620223751365725E-1    9.549821397556180E-1
 8.790000000000000E9    -5.658179650071182E-2    9.664093625054218E-1
 8.800000000000000E9     4.963910567835630E-2    9.657256956319101E-1
 8.810000000000000E9     1.558727784923629E-1    9.530024780840558E-1
 8.820000000000000E9     2.607244278720448E-1    9.289897608590367E-1
 8.830000000000000E9     3.628399902004651E-1    8.941126742842704E-1
 8.840000000000000E9     4.603777167268465E-1    8.487840974036405E-1
 8.850000000000000E9     5.521354026967880E-1    7.936627525808495E-1
 8.860000000000000E9     6.362838326611227E-1    7.292884305239937E-1
 8.870000000000000E9     7.124951887350058E-1    6.562843367635702E-1
 8.880000000000000E9     7.794931960513938E-1    5.750283018182993E-1
 8.890000000000000E9     8.368108701618423E-1    4.855901716437261E-1
 8.900000000000000E9     8.842927797284433E-1    3.887908538109091E-1
 8.910000000000000E9     9.210249766526496E-1    2.855103319208772E-1
 8.920000000000000E9     9.463135519950723E-1    1.766368833183068E-1
 8.930000000000000E9     9.598083154839800E-1    6.365672892207322E-2
 8.940000000000000E9     9.604979140072091E-1   -5.138978783298265E-2
 8.950000000000000E9     9.478115938015633E-1   -1.663221632840067E-1
 8.960000000000000E9     9.215670709259228E-1   -2.793895153515272E-1
 8.970000000000000E9     8.812176541304054E-1   -3.885095625193409E-1
 8.980000000000000E9     8.268830872196552E-1   -4.923616714043140E-1
 8.990000000000000E9     7.589646180327760E-1   -5.894371146705061E-1
 9.000000000000000E9     6.775710197175973E-1   -6.782294367655838E-1
 9.010000000000000E9     5.838561224180353E-1   -7.575072094740510E-1
 9.020000000000000E9     4.789506697458720E-1   -8.257084293803949E-1
 9.030000000000000E9     3.648470029802423E-1   -8.808985942308577E-1
 9.040000000000000E9     2.440332786127960E-1   -9.213317922161410E-1
 9.050000000000000E9     1.189141096695396E-1   -9.461171203041386E-1
 9.060000000000000E9    -7.449454756923206E-3   -9.541735736543837E-1
 9.070000000000000E9    -1.328585553397011E-1   -9.452278672566848E-1
 9.080000000000000E9    -2.549245194833610E-1   -9.193419930229270E-1
 9.090000000000000E9    -3.715917835104758E-1   -8.773908188952213E-1
 9.100000000000000E9    -4.815799334874465E-1   -8.206023711933592E-1
 9.110000000000000E9    -5.831322721843396E-1   -7.499112489531590E-1
 9.120000000000000E9    -6.747712179131121E-1   -6.672696512242657E-1
 9.130000000000000E9    -7.550019869445617E-1   -5.745426458779785E-1
 9.140000000000000E9    -8.225218353654524E-1   -4.740476301746913E-1
 9.150000000000000E9    -8.764151508671387E-1   -3.681112139693476E-1
 9.160000000000000E9    -9.158273580751216E-1   -2.593475138218738E-1
 9.170000000000000E9    -9.410831442411026E-1   -1.497714803282238E-1
 9.180000000000000E9    -9.523681857742821E-1   -4.102368683944164E-2
 9.190000000000000E9    -9.508897388200364E-1    6.520125503140416E-2
 9.200000000000000E9    -9.378857762665912E-1    1.680644636295336E-1
 9.210000000000000E9    -9.145755763599688E-1    2.672275810809859E-1
 9.220000000000000E9    -8.816855067010146E-1    3.620928722660278E-1
 9.230000000000000E9    -8.404054986250207E-1    4.512839579642483E-1
 9.240000000000000E9    -7.915262570846214E-1    5.347976121467836E-1
 9.250000000000000E9    -7.359752775345603E-1    6.116377846675402E-1
 9.260000000000000E9    -6.749655068665634E-1    6.806464217587418E-1
 9.270000000000000E9    -6.094863172766340E-1    7.415666350487583E-1
 9.280000000000000E9    -5.405406031679403E-1    7.941960545865214E-1
 9.290000000000000E9    -4.688826714087656E-1    8.388666325811347E-1
 9.300000000000000E9    -3.953473974225815E-1    8.758127187837715E-1
 9.310000000000000E9    -3.203408736647335E-1    9.059197389218928E-1
 9.320000000000000E9    -2.444476529038509E-1    9.293483935319896E-1
 9.330000000000000E9    -1.679169700273219E-1    9.467304799700244E-1
 9.340000000000000E9    -9.124870138438285E-2    9.582198937685774E-1
 9.350000000000000E9    -1.481059974248118E-2    9.639557569017904E-1
 9.360000000000000E9     6.087940498954319E-2    9.637372613111470E-1
 9.370000000000000E9     1.351062212518592E-1    9.576673812381189E-1
 9.380000000000000E9     2.073573587006282E-1    9.458134773164700E-1
 9.390000000000000E9     2.771330554771823E-1    9.283474919893367E-1
 9.400000000000000E9     3.441705172672478E-1    9.058884609705894E-1
 9.410000000000000E9     4.084140418022665E-1    8.787121873429639E-1
 9.420000000000000E9     4.698629330889512E-1    8.473396834397048E-1
 9.430000000000000E9     5.287826306247482E-1    8.121536988797317E-1
 9.440000000000000E9     5.852064635913501E-1    7.730714505039816E-1
 9.450000000000000E9     6.389532346552455E-1    7.300995671320349E-1
 9.460000000000000E9     6.899144120918385E-1    6.833138283573098E-1
 9.470000000000000E9     7.377756017562423E-1    6.327061698687366E-1
 9.480000000000000E9     7.818343999883434E-1    5.784120602536216E-1
 9.490000000000000E9     8.217914619476187E-1    5.205135972395867E-1
 9.500000000000000E9     8.574451746527886E-1    4.597051606552621E-1
 9.510000000000000E9     8.883200513178068E-1    3.959886237632801E-1
 9.520000000000000E9     9.145567720821635E-1    3.297322471684397E-1
 9.530000000000000E9     9.362404041379573E-1    2.615301887149160E-1
 9.540000000000000E9     9.532605422486533E-1    1.914805283226235E-1
 9.550000000000000E9     9.653536951449549E-1    1.194087637874666E-1
 9.560000000000000E9     9.722542577516236E-1    4.552754136290545E-2
 9.570000000000000E9     9.733173500847863E-1   -3.028442797849063E-2
 9.580000000000000E9     9.681184333726083E-1   -1.077361222573407E-1
 9.590000000000000E9     9.558482114052846E-1   -1.863850256106866E-1
 9.600000000000000E9     9.361542409100486E-1   -2.660507318461701E-1
 9.610000000000000E9     9.088490015624160E-1   -3.458062781474819E-1
 9.620000000000000E9     8.735003357647977E-1   -4.248198539731496E-1
 9.630000000000000E9     8.302097915908867E-1   -5.025860423609638E-1
 9.640000000000000E9     7.789968014360498E-1   -5.778224873567478E-1
 9.650000000000000E9     7.196912630583723E-1   -6.502016706284576E-1
 9.660000000000000E9     6.511080706224660E-1   -7.186208822835211E-1
 9.670000000000000E9     5.735080934951954E-1   -7.816242333943276E-1
 9.680000000000000E9     4.860839080542398E-1   -8.377090601769990E-1
 9.690000000000000E9     3.891735618102639E-1   -8.850885071799519E-1
 9.700000000000000E9     2.827546085288838E-1   -9.220436814956128E-1
 9.710000000000000E9     1.680423018708089E-1   -9.468045969702373E-1
 9.720000000000000E9     4.705127424127507E-2   -9.573806422987406E-1
 9.730000000000000E9    -7.850156722985195E-2   -9.522626361665115E-1
 9.740000000000000E9    -2.060675293033672E-1   -9.303300237910220E-1
 9.750000000000000E9    -3.328861401365117E-1   -8.904185044767459E-1
 9.760000000000000E9    -4.558259847096460E-1   -8.316580041344067E-1
 9.770000000000000E9    -5.715441929189119E-1   -7.540257735958221E-1
 9.780000000000000E9    -6.763276710197764E-1   -6.571492886530729E-1
 9.790000000000000E9    -7.665076527884036E-1   -5.430452967197704E-1
 9.800000000000000E9    -8.382653997878022E-1   -4.141165671985718E-1
 9.810000000000000E9    -8.890294725787649E-1   -2.743336054581165E-1
 9.820000000000000E9    -9.169266667317963E-1   -1.286039422600648E-1
 9.830000000000000E9    -9.222103195027171E-1    1.852908671561235E-2
 9.840000000000000E9    -9.052286907226402E-1    1.621840606138057E-1
 9.850000000000000E9    -8.677294890379366E-1    2.984947043056158E-1
 9.860000000000000E9    -8.116146733621673E-1    4.245237204385787E-1
 9.870000000000000E9    -7.392928631069904E-1    5.378035767279188E-1
 9.880000000000000E9    -6.535639795568740E-1    6.365328960121958E-1
 9.890000000000000E9    -5.571476795906293E-1    7.195036661420633E-1
 9.900000000000000E9    -4.534119056145006E-1    7.864007694028119E-1
 9.910000000000000E9    -3.455449741912226E-1    8.373800694102147E-1
 9.920000000000000E9    -2.366365253038706E-1    8.733190969130565E-1
 9.930000000000000E9    -1.293244017263054E-1    8.952470948386287E-1
 9.940000000000000E9    -2.521076201628763E-2    9.048378046179251E-1
 9.950000000000000E9     7.435217173967686E-2    9.030428179678098E-1
 9.960000000000000E9     1.685403913852834E-1    8.911039477125361E-1
 9.970000000000000E9     2.574128065117031E-1    8.699657310372595E-1
 9.980000000000000E9     3.408086166841264E-1    8.406329223344009E-1
 9.990000000000000E9     4.185564382224657E-1    8.039904379388693E-1
 1.000000000000000E+10   4.909619285839319E-1    7.615402269007917E-1
 1.001000000000000E+10   5.572637398291476E-1    7.133224574287895E-1
 1.002000000000000E+10   6.178784041122126E-1    6.615938144614041E-1
 1.003000000000000E+10   6.726224551466360E-1    6.074242795556200E-1
 1.004000000000000E+10   7.214117841787628E-1    5.516977442315520E-1
 1.005000000000000E+10   7.643012811383939E-1    4.949443674859451E-1
 1.006000000000000E+10   8.015783408189766E-1    4.376228618263056E-1
 1.007000000000000E+10   8.331309678083839E-1    3.791163436920507E-1
 1.008000000000000E+10   8.593901330667244E-1    3.195088614908201E-1
 1.009000000000000E+10   8.805597184915054E-1    2.583558092090563E-1
 1.010000000000000E+10   8.966508246989726E-1    1.955335199320699E-1
 1.011000000000000E+10   9.081708310324721E-1    1.311176548282559E-1
 1.012000000000000E+10   9.151811814157331E-1    6.578596436409989E-2
 1.013000000000000E+10   9.181973965076525E-1    1.886822714592090E-4
 1.014000000000000E+10   9.176383148085639E-1   -6.460036168160180E-2
 1.015000000000000E+10   9.135778841553229E-1   -1.279670207410209E-1
 1.016000000000000E+10   9.057243718071031E-1   -1.896612987708869E-1
 1.017000000000000E+10   8.944109141676934E-1   -2.492053445509217E-1
 1.018000000000000E+10   8.789362985864525E-1   -3.068826020380830E-1
 1.019000000000000E+10   8.591148884527580E-1   -3.628024053241781E-1
 1.020000000000000E+10   8.347658019769980E-1   -4.174188329737386E-1
 1.021000000000000E+10   8.055728146243798E-1   -4.711697110798370E-1
 1.022000000000000E+10   7.715003369099738E-1   -5.242680006671580E-1
 1.023000000000000E+10   7.328343824752243E-1   -5.763172475735187E-1
 1.024000000000000E+10   6.901119044345791E-1   -6.268045121766438E-1
 1.025000000000000E+10   6.440642049378318E-1   -6.752168024693795E-1
 1.026000000000000E+10   5.952808319533172E-1   -7.205359863261251E-1
 1.027000000000000E+10   5.444260378866559E-1   -7.622493918835457E-1
 1.028000000000000E+10   4.913406321705322E-1   -7.999290445131927E-1
 1.029000000000000E+10   4.361746814132073E-1   -8.332256365433947E-1
 1.030000000000000E+10   3.781349492155577E-1   -8.620784730171540E-1
 1.031000000000000E+10   3.166598788060602E-1   -8.863125836012803E-1
 1.032000000000000E+10   2.514215561090609E-1   -9.059587970282583E-1
 1.033000000000000E+10   1.824570589062217E-1   -9.207982161921789E-1
 1.034000000000000E+10   1.101266778693844E-1   -9.308555379347000E-1
 1.035000000000000E+10   3.491633864107076E-2   -9.359015169312147E-1
 1.036000000000000E+10  -4.230459396949559E-2   -9.355391302133532E-1
 1.037000000000000E+10  -1.202190913469344E-1   -9.293597413055659E-1
 1.038000000000000E+10  -1.980576266140271E-1   -9.171366521747960E-1
 1.039000000000000E+10  -2.748144957363262E-1   -8.981006671724417E-1
 1.040000000000000E+10  -3.501609119655755E-1   -8.718068975603629E-1
 1.041000000000000E+10  -4.240815419178862E-1   -8.379351042581306E-1
 1.042000000000000E+10  -4.960698750728600E-1   -7.958524208559471E-1
 1.043000000000000E+10  -5.662859318460199E-1   -7.450224299266504E-1
 1.044000000000000E+10  -6.341276183369615E-1   -6.855379407207464E-1
 1.045000000000000E+10  -6.983007553217866E-1   -6.175105920288431E-1
 1.046000000000000E+10  -7.578966509622883E-1   -5.418348721834547E-1
 1.047000000000000E+10  -8.112564594389132E-1   -4.591493637725875E-1
 1.048000000000000E+10  -8.564887789337983E-1   -3.702706989512152E-1
 1.049000000000000E+10  -8.926888281765218E-1   -2.764970557891912E-1
 1.050000000000000E+10  -9.181421001967048E-1   -1.785937473724873E-1
 1.051000000000000E+10  -9.324442838534028E-1   -7.688999414382831E-2
 1.052000000000000E+10  -9.345604975844122E-1    2.786855744131441E-2
 1.053000000000000E+10  -9.237905416545269E-1    1.351891601009275E-1
 1.054000000000000E+10  -8.995108149484859E-1    2.436635005958657E-1
 1.055000000000000E+10  -8.619459636413630E-1    3.520479276174107E-1
 1.056000000000000E+10  -8.108571654883067E-1    4.573580380070147E-1
 1.057000000000000E+10  -7.477872158836244E-1    5.576192621642521E-1
 1.058000000000000E+10  -6.730951439011917E-1    6.500096727643541E-1
 1.059000000000000E+10  -5.882417617923998E-1    7.318522854431526E-1
 1.060000000000000E+10  -4.945590102434804E-1    8.018731361964738E-1
 1.061000000000000E+10  -3.931222847316867E-1    8.585313642439045E-1
 1.062000000000000E+10  -2.853297737094323E-1    9.014774365536109E-1
 1.063000000000000E+10  -1.720778268670022E-1    9.299091518055835E-1
 1.064000000000000E+10  -5.534931672143188E-2    9.440805193652771E-1
 1.065000000000000E+10   6.345245562688479E-2    9.441067800469508E-1
 1.066000000000000E+10   1.815776808898282E-1    9.302530401252952E-1
 1.067000000000000E+10   2.965376003369563E-1    9.030736560634460E-1
 1.068000000000000E+10   4.058335959162239E-1    8.633423844272461E-1
 1.069000000000000E+10   5.070521525358745E-1    8.126107053322102E-1
 1.070000000000000E+10   5.989276520413999E-1    7.519905648967112E-1
 1.071000000000000E+10   6.805847068457884E-1    6.825776245472428E-1
 1.072000000000000E+10   7.518454893781117E-1    6.056171477550404E-1
 1.073000000000000E+10   8.130207443933465E-1    5.216203872989617E-1
 1.074000000000000E+10   8.640440674476144E-1    4.321234654665105E-1
 1.075000000000000E+10   9.053291864252221E-1    3.375801552421013E-1
 1.076000000000000E+10   9.368828849569872E-1    2.399923331414498E-1
 1.077000000000000E+10   9.584802659751082E-1    1.402955546192000E-1
 1.078000000000000E+10   9.702612203470630E-1    4.122579555065472E-2
 1.079000000000000E+10   9.718446499931217E-1   -5.611624443173786E-2
 1.080000000000000E+10   9.641629894520716E-1   -1.502199816724587E-1
 1.081000000000000E+10   9.473543194364558E-1   -2.405715398222132E-1
 1.082000000000000E+10   9.217678277543528E-1   -3.263051247143778E-1
 1.083000000000000E+10   8.882956201549712E-1   -4.081717245818560E-1
 1.084000000000000E+10   8.469701971579593E-1   -4.859716973335318E-1
 1.085000000000000E+10   7.989774705429256E-1   -5.597650978570941E-1
 1.086000000000000E+10   7.443711337383044E-1   -6.297231570542874E-1
 1.087000000000000E+10   6.840625303896291E-1   -6.950801306636115E-1
 1.088000000000000E+10   6.193513854874164E-1   -7.544836878682659E-1
 1.089000000000000E+10   5.507081526558012E-1   -8.078604541378224E-1
 1.090000000000000E+10   4.787974304034566E-1   -8.538892763082695E-1
 1.091000000000000E+10   4.043219663185473E-1   -8.923155119501563E-1
 1.092000000000000E+10   3.281648057244700E-1   -9.228363925910293E-1
 1.093000000000000E+10   2.506346490874397E-1   -9.459350283548300E-1
 1.094000000000000E+10   1.712161058100636E-1   -9.618794981952324E-1
 1.095000000000000E+10   9.032211287856010E-2   -9.711217396534290E-1
 1.096000000000000E+10   7.746380368101646E-3   -9.732753183583240E-1
 1.097000000000000E+10  -7.618046688979981E-2   -9.694719820510375E-1
 1.098000000000000E+10  -1.602863055472317E-1   -9.585204366959452E-1
 1.099000000000000E+10  -2.434397000086756E-1   -9.408155655771652E-1
 1.100000000000000E+10  -3.244564346478685E-1   -9.164271901679453E-1
 1.101000000000000E+10  -4.022208707654469E-1   -8.853926621926242E-1
 1.102000000000000E+10  -4.756272326719838E-1   -8.476852799129174E-1
 1.103000000000000E+10  -5.446607822647981E-1   -8.037522589279192E-1
 1.104000000000000E+10  -6.088675212713806E-1   -7.536698864140418E-1
 1.105000000000000E+10  -6.684697398649090E-1   -6.978947243488799E-1
 1.106000000000000E+10  -7.238059487430655E-1   -6.365898489964046E-1
 1.107000000000000E+10  -7.747339252522961E-1   -5.696805714063041E-1
 1.108000000000000E+10  -8.208169791761972E-1   -4.977955349309602E-1
 1.109000000000000E+10  -8.612614336715676E-1   -4.211892216314898E-1
 1.110000000000000E+10  -8.955860593308003E-1   -3.406789215403747E-1
 1.111000000000000E+10  -9.225675227963165E-1   -2.570513048527835E-1
 1.112000000000000E+10  -9.412605751651365E-1   -1.715311815281735E-1
 1.113000000000000E+10  -9.515361120035107E-1   -8.507424134258633E-2
 1.114000000000000E+10  -9.532625052721966E-1    1.757510706824578E-3
 1.115000000000000E+10  -9.466333017835488E-1    8.822216154124997E-2
 1.116000000000000E+10  -9.320358326842347E-1    1.740359092665798E-1
 1.117000000000000E+10  -9.095703120847671E-1    2.588216719378407E-1
 1.118000000000000E+10  -8.795152473322614E-1    3.422800636055283E-1
 1.119000000000000E+10  -8.419981003312786E-1    4.234291064065208E-1
 1.120000000000000E+10  -7.971090114667332E-1    5.012594572023129E-1
 1.121000000000000E+10  -7.449788978119705E-1    5.746921533774680E-1
 1.122000000000000E+10  -6.859974128343430E-1    6.427052941431972E-1
 1.123000000000000E+10  -6.207247804269590E-1    7.041831665711700E-1
 1.124000000000000E+10  -5.501787929439181E-1    7.583598282952860E-1
 1.125000000000000E+10  -4.748064489080806E-1    8.053827875749728E-1
 1.126000000000000E+10  -3.957208966763184E-1    8.445919373664355E-1
 1.127000000000000E+10  -3.133048567631546E-1    8.764619141497155E-1
 1.128000000000000E+10  -2.281052349854755E-1    9.007525938323835E-1
 1.129000000000000E+10  -1.406861888232638E-1    9.175664858721746E-1
 1.130000000000000E+10  -5.217968011011091E-2    9.263492668513210E-1
 1.131000000000000E+10   3.654570386505270E-2    9.271992505604519E-1
 1.132000000000000E+10   1.245159002591708E-1    9.194388995555789E-1
 1.133000000000000E+10   2.109621366200984E-1    9.032895148902474E-1
 1.134000000000000E+10   2.945882619854598E-1    8.790129980601038E-1
 1.135000000000000E+10   3.747241847732091E-1    8.472819633418546E-1
 1.136000000000000E+10   4.510147058117196E-1    8.081253185644838E-1
 1.137000000000000E+10   5.230035271211587E-1    7.628598911834756E-1
 1.138000000000000E+10   5.905816537552676E-1    7.120312955116184E-1
 1.139000000000000E+10   6.533486691890573E-1    6.555638508620176E-1
 1.140000000000000E+10   7.109956694784921E-1    5.941542825419243E-1
 1.141000000000000E+10   7.632046520493998E-1    5.280950484552369E-1
 1.142000000000000E+10   8.088951611075506E-1    4.576679934506657E-1
 1.143000000000000E+10   8.476298885164000E-1    3.835464304136795E-1
 1.144000000000000E+10   8.789689301645198E-1    3.063963098181356E-1
 1.145000000000000E+10   9.027941051697113E-1    2.269551057907127E-1
 1.146000000000000E+10   9.194262390525246E-1    1.461956427628147E-1
 1.147000000000000E+10   9.289016106289647E-1    6.466099378486306E-2
 1.148000000000000E+10   9.317523873499237E-1   -1.737329895253363E-2
 1.149000000000000E+10   9.277020630910745E-1   -9.902363892567202E-2
 1.150000000000000E+10   9.172716558005054E-1   -1.801942297473491E-1
 1.151000000000000E+10   9.001011734435638E-1   -2.601806327726611E-1
 1.152000000000000E+10   8.760363115955783E-1   -3.382111004953626E-1
 1.153000000000000E+10   8.450939118853188E-1   -4.138124872073481E-1
 1.154000000000000E+10   8.071982059964220E-1   -4.863306533466200E-1
 1.155000000000000E+10   7.626732809534258E-1   -5.550373691845779E-1
 1.156000000000000E+10   7.119631714676624E-1   -6.193898428348473E-1
 1.157000000000000E+10   6.558382316012035E-1   -6.789825387292950E-1
 1.158000000000000E+10   5.950743484933214E-1   -7.335913014746602E-1
 1.159000000000000E+10   5.299537175723776E-1   -7.827037828086439E-1
 1.160000000000000E+10   4.609440592713691E-1   -8.267759940489817E-1
 1.161000000000000E+10   3.884921742796890E-1   -8.649180467305315E-1
 1.162000000000000E+10   3.124596007308174E-1   -8.970162122827726E-1
 1.163000000000000E+10   2.332170582517825E-1   -9.222468211227745E-1
 1.164000000000000E+10   1.510859461483922E-1   -9.400744298348055E-1
 1.165000000000000E+10   6.680695341857339E-2   -9.504638322409865E-1
 1.166000000000000E+10  -1.866257298772204E-2   -9.525739883365022E-1
 1.167000000000000E+10  -1.047251129687808E-1   -9.469360859316557E-1
 1.168000000000000E+10  -1.901817441920996E-1   -9.336967681188170E-1
 1.169000000000000E+10  -2.747526470677851E-1   -9.129533519099747E-1
 1.170000000000000E+10  -3.573980531956850E-1   -8.851860474358821E-1
 1.171000000000000E+10  -4.373828020685401E-1   -8.498904758579288E-1
 1.172000000000000E+10  -5.138868497869681E-1   -8.073255487859292E-1
 1.173000000000000E+10  -5.865823858515650E-1   -7.574508819290166E-1
 1.174000000000000E+10  -6.549611985156500E-1   -6.999115488810885E-1
 1.175000000000000E+10  -7.177967244065220E-1   -6.350005117660259E-1
 1.176000000000000E+10  -7.750822093147631E-1   -5.629417119399849E-1
 1.177000000000000E+10  -8.257293577993157E-1   -4.841417998781751E-1
 1.178000000000000E+10  -8.691840908959407E-1   -3.996939350615029E-1
 1.179000000000000E+10  -9.045658893837023E-1   -3.106361845818749E-1
 1.180000000000000E+10  -9.315284770136790E-1   -2.179906599728926E-1
 1.181000000000000E+10  -9.494794301968725E-1   -1.231039634202097E-1
 1.182000000000000E+10  -9.581128232765992E-1   -2.708924522174265E-2
 1.183000000000000E+10  -9.567720637820899E-1    7.026866576632844E-2
 1.184000000000000E+10  -9.444029057428546E-1    1.670321277291434E-1
 1.185000000000000E+10  -9.213330314778412E-1    2.626640179347516E-1
 1.186000000000000E+10  -8.873716773636222E-1    3.563810101032466E-1
 1.187000000000000E+10  -8.430037117178776E-1    4.466833367012651E-1
 1.188000000000000E+10  -7.891163516987326E-1    5.327349432613274E-1
 1.189000000000000E+10  -7.265066324300621E-1    6.130529109619635E-1
 1.190000000000000E+10  -6.565699376146534E-1    6.866124431186361E-1
 1.191000000000000E+10  -5.797485815455761E-1    7.530730164086307E-1
 1.192000000000000E+10  -4.967770676502168E-1    8.106499026582666E-1
 1.193000000000000E+10  -4.085521233928222E-1    8.584811622075416E-1
 1.194000000000000E+10  -3.157954231397755E-1    8.960238784127409E-1
 1.195000000000000E+10  -2.194670462117692E-1    9.226874009446142E-1
 1.196000000000000E+10  -1.201245579409274E-1    9.382342258386387E-1
 1.197000000000000E+10  -1.930862645968053E-2    9.423061716756336E-1
 1.198000000000000E+10   8.183663214515692E-2    9.359563694694824E-1
 1.199000000000000E+10   1.813658967979229E-1    9.194373041353175E-1
 1.200000000000000E+10   2.780252684345719E-1    8.934143279991383E-1
 1.201000000000000E+10   3.702240710983839E-1    8.589176685153026E-1
 1.202000000000000E+10   4.567852730297776E-1    8.163857057665342E-1
 1.203000000000000E+10   5.368195399346744E-1    7.665214633418546E-1
 1.204000000000000E+10   6.098411338848870E-1    7.098956067377914E-1
 1.205000000000000E+10   6.756986914257549E-1    6.467313604726376E-1
 1.206000000000000E+10   7.338194937626704E-1    5.773183878169825E-1
 1.207000000000000E+10   7.844806579269190E-1    5.023779464820063E-1
 1.208000000000000E+10   8.276339331655107E-1    4.226711336368826E-1
 1.209000000000000E+10   8.629227062587067E-1    3.395241941627620E-1
 1.210000000000000E+10   8.905977917852489E-1    2.542686943717179E-1
 1.211000000000000E+10   9.104976906009740E-1    1.682530869429243E-1
 1.212000000000000E+10   9.226740306552510E-1    8.251259136205569E-2
 1.213000000000000E+10   9.271764858338781E-1   -1.793507631408812E-3
 1.214000000000000E+10   9.238636208961496E-1   -8.474809703004799E-2
 1.215000000000000E+10   9.128338875132795E-1   -1.653026502297116E-1
 1.216000000000000E+10   8.941438887637735E-1   -2.439489623589129E-1
 1.217000000000000E+10   8.682749861687936E-1   -3.200427064245763E-1
 1.218000000000000E+10   8.356465398146874E-1   -3.937605532373457E-1
 1.219000000000000E+10   7.972117338532348E-1   -4.644999901034163E-1
 1.220000000000000E+10   7.535288183050503E-1   -5.318624171183390E-1
 1.221000000000000E+10   7.051568688569854E-1   -5.951369341214010E-1
 1.222000000000000E+10   6.533244569067548E-1   -6.539183619060603E-1
 1.223000000000000E+10   5.982283109438057E-1   -7.071136824321689E-1
 1.224000000000000E+10   5.402320378117450E-1   -7.542075434131920E-1
 1.225000000000000E+10   4.794436370787709E-1   -7.955571506418977E-1
 1.226000000000000E+10   4.160562659377147E-1   -8.306746976894059E-1
 1.227000000000000E+10   3.490834718154655E-1   -8.599501368905168E-1
 1.228000000000000E+10   2.794024261474646E-1   -8.833933937355367E-1
 1.229000000000000E+10   2.071737937920284E-1   -9.013577084440839E-1
 1.230000000000000E+10   1.329092081406350E-1   -9.141498310236923E-1
 1.231000000000000E+10   5.736710082873171E-2   -9.219198842930274E-1
 1.232000000000000E+10  -1.800411652381657E-2   -9.247411089529601E-1
 1.233000000000000E+10  -9.253396053079314E-2   -9.222337894489205E-1
 1.234000000000000E+10  -1.649161766827807E-1   -9.146722032592223E-1
 1.235000000000000E+10  -2.353716645878098E-1   -9.017640930366250E-1
 1.236000000000000E+10  -3.028652585375048E-1   -8.830315398212368E-1
 1.237000000000000E+10  -3.683018880331401E-1   -8.588563460750944E-1
 1.238000000000000E+10  -4.314960395837516E-1   -8.283219837405822E-1
 1.239000000000000E+10  -4.930614424254755E-1   -7.922829927903342E-1
 1.240000000000000E+10  -5.526034685496806E-1   -7.505956122774525E-1
 1.241000000000000E+10  -6.102636793050213E-1   -7.037490010544801E-1
 1.242000000000000E+10  -6.654328862180580E-1   -6.523450685955868E-1
 1.243000000000000E+10  -7.174075719516586E-1   -5.970601399877776E-1
 1.244000000000000E+10  -7.649612491847572E-1   -5.388866006029335E-1
 1.245000000000000E+10  -8.076516835458221E-1   -4.778870898260550E-1
 1.246000000000000E+10  -8.450583091415719E-1   -4.141305490669128E-1
 1.247000000000000E+10  -8.762662946209366E-1   -3.480305533137022E-1
 1.248000000000000E+10  -9.015869705516120E-1   -2.792703136013515E-1
 1.249000000000000E+10  -9.209447058356266E-1   -2.072397902026000E-1
 1.250000000000000E+10  -9.341529835641055E-1   -1.323915504082623E-1
