#  HZ   S   RI   R     50.00 
! Rohde & Schwarz Vector Network Analyzer 
! Rohde-Schwarz,ZNA43-4Port,1332450044101932,2.92
! Created: UTC 6/1/2026, 11:42:49 AM
! freq[Hz]                re:S11                  im:S11
 8.000000000000000E9    -7.296250663698777E-1   -5.951832976836715E-1
 8.010000000000000E9    -8.452858886730114E-1   -4.196407095190987E-1
 8.020000000000000E9    -9.173677273722826E-1   -2.356849446103404E-1
 8.030000000000000E9    -9.497136958389371E-1   -5.446668841041429E-2
 8.040000000000000E9    -9.482575720522027E-1    1.166810575129668E-1
 8.050000000000000E9    -9.190287798261945E-1    2.733670581543261E-1
 8.060000000000000E9    -8.671834971354407E-1    4.133499793650824E-1
 8.070000000000000E9    -7.984560386021291E-1    5.359728962894151E-1
 8.080000000000000E9    -7.173139720770855E-1    6.411554690837162E-1
 8.090000000000000E9    -6.271741984100699E-1    7.297379500187154E-1
 8.100000000000000E9    -5.316710067685193E-1    8.029761671730592E-1
 8.110000000000000E9    -4.338216379050536E-1    8.618827889519861E-1
 8.120000000000000E9    -3.352967019152961E-1    9.070984498753698E-1
 8.130000000000000E9    -2.373507915483610E-1    9.399304840444846E-1
 8.140000000000000E9    -1.410964940305229E-1    9.613527654362838E-1
 8.150000000000000E9    -4.656230238962407E-2    9.721570016521177E-1
 8.160000000000000E9     4.553805446767883E-2    9.727613464067564E-1
 8.170000000000000E9     1.355371128846771E-1    9.639987466066849E-1
 8.180000000000000E9     2.229720256866422E-1    9.466714318029004E-1
 8.190000000000000E9     3.076697259233973E-1    9.219092706075047E-1
 8.200000000000000E9     3.889659459280385E-1    8.899459987899794E-1
 8.210000000000000E9     4.664292914656284E-1    8.523114088289431E-1
 8.220000000000000E9     5.396286929316382E-1    8.091258050005494E-1
 8.230000000000000E9     6.078187009026199E-1    7.609514408016886E-1
 8.240000000000000E9     6.708509327568170E-1    7.076081804863504E-1
 8.250000000000000E9     7.284770314703535E-1    6.498373722752377E-1
 8.260000000000000E9     7.803747242928815E-1    5.869035768249021E-1
 8.270000000000000E9     8.264705686366053E-1    5.188066032642723E-1
 8.280000000000000E9     8.667852935374812E-1    4.456476732174314E-1
 8.290000000000000E9     9.011558334168241E-1    3.674730855214380E-1
 8.300000000000000E9     9.289578958168281E-1    2.854165191651607E-1
 8.310000000000000E9     9.501873560802225E-1    2.004549286214280E-1
 8.320000000000000E9     9.645322399098007E-1    1.133622154412324E-1
 8.330000000000000E9     9.715341031312551E-1    2.502502327520421E-2
 8.340000000000000E9     9.708034203453096E-1   -6.375260432474855E-2
 8.350000000000000E9     9.615802873230597E-1   -1.524248540152873E-1
 8.360000000000000E9     9.432488113838107E-1   -2.409737891776316E-1
 8.370000000000000E9     9.152250575003976E-1   -3.289495384088345E-1
 8.380000000000000E9     8.772656350279535E-1   -4.158044466726381E-1
 8.390000000000000E9     8.292813219187752E-1   -5.007362441108305E-1
 8.400000000000000E9     7.711127447234587E-1   -5.829435343361928E-1
 8.410000000000000E9     7.034283513521797E-1   -6.611701124034938E-1
 8.420000000000000E9     6.267796505814961E-1   -7.335857995870939E-1
 8.430000000000000E9     5.417796560802650E-1   -7.986091535658283E-1
 8.440000000000000E9     4.493654766434191E-1   -8.547416993924990E-1
 8.450000000000000E9     3.503824067859110E-1   -9.004179669924618E-1
 8.460000000000000E9     2.453300385470985E-1   -9.342272814992064E-1
 8.470000000000000E9     1.345514002869286E-1   -9.552995321842500E-1
 8.480000000000000E9     1.930871194863367E-2   -9.625157957721759E-1
 8.490000000000000E9    -9.938243970248560E-2   -9.550861719883724E-1
 8.500000000000000E9    -2.196213933397890E-1   -9.325947790383373E-1
 8.510000000000000E9    -3.383895364046610E-1   -8.942981388250003E-1
 8.520000000000000E9    -4.533005616701750E-1   -8.410309486199796E-1
 8.530000000000000E9    -5.611528354718194E-1   -7.736125097764834E-1
 8.540000000000000E9    -6.595249647509104E-1   -6.931738469615339E-1
 8.550000000000000E9    -7.459198905194395E-1   -6.009055232246558E-1
 8.560000000000000E9    -8.185846818396918E-1   -4.981784263400163E-1
 8.570000000000000E9    -8.763449799028863E-1   -3.864524152708977E-1
 8.580000000000000E9    -9.182217457214719E-1   -2.673440520007574E-1
 8.590000000000000E9    -9.437182905119271E-1   -1.428412970496713E-1
 8.600000000000000E9    -9.526077808973598E-1   -1.524450078881569E-2
 8.610000000000000E9    -9.451112939990240E-1    1.126577026911010E-1
 8.620000000000000E9    -9.219030391818148E-1    2.378647996672696E-1
 8.630000000000000E9    -8.838588280176168E-1    3.576767090746326E-1
 8.640000000000000E9    -8.318455462923273E-1    4.699927218901880E-1
 8.650000000000000E9    -7.670226624830219E-1    5.726991473583707E-1
 8.660000000000000E9    -6.907538645443339E-1    6.643021021671700E-1
 8.670000000000000E9    -6.042048843330381E-1    7.442192535555144E-1
 8.680000000000000E9    -5.085792334047555E-1    8.116727059740162E-1
 8.690000000000000E9    -4.056362633030182E-1    8.665949335172429E-1
 8.700000000000000E9    -2.968432610189020E-1    9.084671775305259E-1
 8.710000000000000E9    -1.840673487517203E-1    9.374687598032556E-1
 8.720000000000000E9    -6.998437745468662E-2    9.532494499319731E-1
 8.730000000000000E9     4.356989350901855E-2    9.562324763940943E-1
 8.740000000000000E9     1.548678742566101E-1    9.465409285828668E-1
 8.750000000000000E9     2.625490494038829E-1    9.243751380411627E-1
 8.760000000000000E9     3.655353766006645E-1    8.897122743832224E-1
 8.770000000000000E9     4.628817259893755E-1    8.433665918244377E-1
 8.780000000000000E9     5.543316403935595E-1    7.851084795183990E-1
 8.790000000000000E9     6.389628547328535E-1    7.156872494634460E-1
 8.800000000000000E9     7.159943805246369E-1    6.364208280821039E-1
 8.810000000000000E9     7.842670875781836E-1    5.480884629872771E-1
 8.820000000000000E9     8.428797541672702E-1    4.524794341217144E-1
 8.830000000000000E9     8.908606235478892E-1    3.508640711090399E-1
 8.840000000000000E9     9.267710338410313E-1    2.449581495484844E-1
 8.850000000000000E9     9.500243612660605E-1    1.359423987116122E-1
 8.860000000000000E9     9.596887942590577E-1    2.520450379969892E-2
 8.870000000000000E9     9.556337919580072E-1   -8.655024537971570E-2
 8.880000000000000E9     9.376279940100177E-1   -1.979750394455272E-1
 8.890000000000000E9     9.052104717653759E-1   -3.081519192435264E-1
 8.900000000000000E9     8.590401570977729E-1   -4.157846656600051E-1
 8.910000000000000E9     7.994526285757905E-1   -5.187049648123109E-1
 8.920000000000000E9     7.272397350880939E-1   -6.149324761153238E-1
 8.930000000000000E9     6.433348625768210E-1   -7.024408605215059E-1
 8.940000000000000E9     5.491918265373901E-1   -7.790387886455359E-1
 8.950000000000000E9     4.464065756518923E-1   -8.427827422400589E-1
 8.960000000000000E9     3.363201384990426E-1   -8.924420955159968E-1
 8.970000000000000E9     2.205755848420291E-1   -9.270051552102795E-1
 8.980000000000000E9     1.006991692659013E-1   -9.461209861391323E-1
 8.990000000000000E9    -2.153791634520891E-2   -9.496697617979729E-1
 9.000000000000000E9    -1.438997984471540E-1   -9.371844969237823E-1
 9.010000000000000E9    -2.643984085710175E-1   -9.098460454971631E-1
 9.020000000000000E9    -3.806826021829818E-1   -8.680971376086820E-1
 9.030000000000000E9    -4.898671150648300E-1   -8.127012357688601E-1
 9.040000000000000E9    -5.895065448023890E-1   -7.454336649942324E-1
 9.050000000000000E9    -6.784358841383512E-1   -6.675506691044711E-1
 9.060000000000000E9    -7.552260768472197E-1   -5.810755191701714E-1
 9.070000000000000E9    -8.192094694236942E-1   -4.868324008268624E-1
 9.080000000000000E9    -8.702364192418465E-1   -3.869106495626207E-1
 9.090000000000000E9    -9.084974014990544E-1   -2.826546358477098E-1
 9.100000000000000E9    -9.346353092922898E-1   -1.754235437622653E-1
 9.110000000000000E9    -9.486122050754056E-1   -6.710239086002558E-2
 9.120000000000000E9    -9.509865294582411E-1    4.052995658295088E-2
 9.130000000000000E9    -9.423090200463464E-1    1.456502847544841E-1
 9.140000000000000E9    -9.231500324426113E-1    2.465787355359685E-1
 9.150000000000000E9    -8.943449283423408E-1    3.420079807075698E-1
 9.160000000000000E9    -8.567273593283249E-1    4.308004422666197E-1
 9.170000000000000E9    -8.113966587270067E-1    5.126715385791407E-1
 9.180000000000000E9    -7.590146158680369E-1    5.874877224796370E-1
 9.190000000000000E9    -7.008476308250615E-1    6.555333675052100E-1
 9.200000000000000E9    -6.376012609263431E-1    7.171015822350773E-1
 9.210000000000000E9    -5.699550925441663E-1    7.724210650756612E-1
 9.220000000000000E9    -4.984905923540783E-1    8.212578797852161E-1
 9.230000000000000E9    -4.244249294750108E-1    8.634129491358352E-1
 9.240000000000000E9    -3.480738084822921E-1    8.986496661780785E-1
 9.250000000000000E9    -2.704052460888396E-1    9.267088172668160E-1
 9.260000000000000E9    -1.927523816385700E-1    9.472862679962682E-1
 9.270000000000000E9    -1.152652556508999E-1    9.607650739676875E-1
 9.280000000000000E9    -3.850866137052458E-2    9.672980425656755E-1
 9.290000000000000E9     3.723964284138916E-2    9.673095571153859E-1
 9.300000000000000E9     1.120054603102071E-1    9.614237355021713E-1
 9.310000000000000E9     1.857871465131171E-1    9.498822046454796E-1
 9.320000000000000E9     2.583850904294827E-1    9.331455467572171E-1
 9.330000000000000E9     3.296619397356407E-1    9.113161860050430E-1
 9.340000000000000E9     3.992293734286559E-1    8.845053253976716E-1
 9.350000000000000E9     4.664347176889612E-1    8.527080219199190E-1
 9.360000000000000E9     5.308099349676739E-1    8.156230932061486E-1
 9.370000000000000E9     5.916218945127828E-1    7.739513239086379E-1
 9.380000000000000E9     6.486283797502138E-1    7.276302934960752E-1
 9.390000000000000E9     7.013782116224905E-1    6.769531595440339E-1
 9.400000000000000E9     7.500924871498028E-1    6.223760607257421E-1
 9.410000000000000E9     7.945639733066846E-1    5.639464581884975E-1
 9.420000000000000E9     8.350058640005460E-1    5.020388803345327E-1
 9.430000000000000E9     8.714696456740421E-1    4.364306275990680E-1
 9.440000000000000E9     9.033940975027152E-1    3.670488152395829E-1
 9.450000000000000E9     9.302564804216128E-1    2.939458802296280E-1
 9.460000000000000E9     9.514854606329172E-1    2.173235169917925E-1
 9.470000000000000E9     9.665492450799251E-1    1.372235530113535E-1
 9.480000000000000E9     9.745375681230208E-1    5.452369887772050E-2
 9.490000000000000E9     9.749210185247834E-1   -3.025836133418276E-2
 9.500000000000000E9     9.679562215755849E-1   -1.164186768056737E-1
 9.510000000000000E9     9.524541003994152E-1   -2.033134151938891E-1
 9.520000000000000E9     9.283736866212722E-1   -2.907235797671519E-1
 9.530000000000000E9     8.958080575103420E-1   -3.777107280331674E-1
 9.540000000000000E9     8.540842922554062E-1   -4.636759961019672E-1
 9.550000000000000E9     8.021568448995141E-1   -5.477782868341791E-1
 9.560000000000000E9     7.394453974371056E-1   -6.286794108840441E-1
 9.570000000000000E9     6.650623736343593E-1   -7.049683003391436E-1
 9.580000000000000E9     5.789781671690136E-1   -7.747169245756950E-1
 9.590000000000000E9     4.814445705053577E-1   -8.356462243557722E-1
 9.600000000000000E9     3.729397788495547E-1   -8.857702069283866E-1
 9.610000000000000E9     2.550938142415640E-1   -9.232583706755485E-1
 9.620000000000000E9     1.295675197553655E-1   -9.457207818413624E-1
 9.630000000000000E9    -1.781799959716906E-3   -9.515496402538794E-1
 9.640000000000000E9    -1.360892294670820E-1   -9.390953664717120E-1
 9.650000000000000E9    -2.709630074551557E-1   -9.064954829186090E-1
 9.660000000000000E9    -4.026040489755182E-1   -8.525781309316063E-1
 9.670000000000000E9    -5.269161909759745E-1   -7.770544140546574E-1
 9.680000000000000E9    -6.394298567988899E-1   -6.808804513991745E-1
 9.690000000000000E9    -7.361283877392970E-1   -5.664574112255413E-1
 9.700000000000000E9    -8.136242519156517E-1   -4.372501644989367E-1
 9.710000000000000E9    -8.695097066477009E-1   -2.977580327329884E-1
 9.720000000000000E9    -9.026749036622367E-1   -1.528775125012508E-1
 9.730000000000000E9    -9.127933839247562E-1   -6.987532081315945E-3
 9.740000000000000E9    -9.006190708362806E-1    1.358586756994053E-1
 9.750000000000000E9    -8.676465813435353E-1    2.718384964837136E-1
 9.760000000000000E9    -8.159208145879436E-1    3.981256016181158E-1
 9.770000000000000E9    -7.481033624557397E-1    5.125278303771152E-1
 9.780000000000000E9    -6.668436213024534E-1    6.126515429387729E-1
 9.790000000000000E9    -5.757175772990559E-1    6.979575762667236E-1
 9.800000000000000E9    -4.780051355392153E-1    7.678213787405668E-1
 9.810000000000000E9    -3.767176006865094E-1    8.223611798761721E-1
 9.820000000000000E9    -2.749015761018014E-1    8.625886438536280E-1
 9.830000000000000E9    -1.737574407379415E-1    8.894039853683476E-1
 9.840000000000000E9    -7.464469025553243E-2    9.047076997021660E-1
 9.850000000000000E9     2.163724178707836E-2    9.088260337465213E-1
 9.860000000000000E9     1.146107207138436E-1    9.025396795994802E-1
 9.870000000000000E9     2.038999658397750E-1    8.869053925430237E-1
 9.880000000000000E9     2.889175027678343E-1    8.630642381894428E-1
 9.890000000000000E9     3.690344781124407E-1    8.321933984629626E-1
 9.900000000000000E9     4.439849137347813E-1    7.955661872501237E-1
 9.910000000000000E9     5.130989168265548E-1    7.542392368057415E-1
 9.920000000000000E9     5.762704604884242E-1    7.093352209861602E-1
 9.930000000000000E9     6.333555253625717E-1    6.617204377350246E-1
 9.940000000000000E9     6.846379699293095E-1    6.116307475547030E-1
 9.950000000000000E9     7.303121663068332E-1    5.591646109460158E-1
 9.960000000000000E9     7.706113129632391E-1    5.042808229773014E-1
 9.970000000000000E9     8.057869103826582E-1    4.467844899612243E-1
 9.980000000000000E9     8.360269444479023E-1    3.869134536754784E-1
 9.990000000000000E9     8.614429424963286E-1    3.251005615934414E-1
 1.000000000000000E+10   8.825990094825609E-1    2.620134519796357E-1
 1.001000000000000E+10   8.991686980855630E-1    1.982975678281435E-1
 1.002000000000000E+10   9.117202844659335E-1    1.346074041412402E-1
 1.003000000000000E+10   9.203945239629842E-1    7.184116515771544E-2
 1.004000000000000E+10   9.250684829497913E-1    1.027310432406938E-2
 1.005000000000000E+10   9.257791035973610E-1   -5.024726024765953E-2
 1.006000000000000E+10   9.223833317866198E-1   -1.098341666265504E-1
 1.007000000000000E+10   9.143578072627803E-1   -1.687983630880885E-1
 1.008000000000000E+10   9.016388766236602E-1   -2.274975541029086E-1
 1.009000000000000E+10   8.842150894976890E-1   -2.862891935224515E-1
 1.010000000000000E+10   8.621005207858005E-1   -3.447246288339482E-1
 1.011000000000000E+10   8.356011617931409E-1   -4.027706761819196E-1
 1.012000000000000E+10   8.054431358591680E-1   -4.596219749181163E-1
 1.013000000000000E+10   7.719492454058527E-1   -5.148972054302251E-1
 1.014000000000000E+10   7.355870181263894E-1   -5.678286920611968E-1
 1.015000000000000E+10   6.966713223742068E-1   -6.179063093424521E-1
 1.016000000000000E+10   6.545823565773328E-1   -6.649356946800259E-1
 1.017000000000000E+10   6.092674397384880E-1   -7.088244828492425E-1
 1.018000000000000E+10   5.599442343776455E-1   -7.492959425885325E-1
 1.019000000000000E+10   5.062574719499054E-1   -7.864438964742835E-1
 1.020000000000000E+10   4.476885668088575E-1   -8.202822031729962E-1
 1.021000000000000E+10   3.841766992456656E-1   -8.506902198224897E-1
 1.022000000000000E+10   3.159540666204199E-1   -8.771779593007412E-1
 1.023000000000000E+10   2.439636858341260E-1   -8.993806340132087E-1
 1.024000000000000E+10   1.690929998620588E-1   -9.167976162456530E-1
 1.025000000000000E+10   9.231414161877316E-2   -9.286958780836744E-1
 1.026000000000000E+10   1.453819197102472E-2   -9.347174297064560E-1
 1.027000000000000E+10  -6.372086581266363E-2   -9.341811429351151E-1
 1.028000000000000E+10  -1.425240922487442E-1   -9.263612137548068E-1
 1.029000000000000E+10  -2.220311363582760E-1   -9.105913147665341E-1
 1.030000000000000E+10  -3.023225798320113E-1   -8.862016979022234E-1
 1.031000000000000E+10  -3.833449280179728E-1   -8.525409844598449E-1
 1.032000000000000E+10  -4.644089406623898E-1   -8.091998450608215E-1
 1.033000000000000E+10  -5.440834188635481E-1   -7.562065921395724E-1
 1.034000000000000E+10  -6.209939634606534E-1   -6.938513144995017E-1
 1.035000000000000E+10  -6.934702884508702E-1   -6.222329699231682E-1
 1.036000000000000E+10  -7.592463915031451E-1   -5.422083866083443E-1
 1.037000000000000E+10  -8.165926490198859E-1   -4.541970150915438E-1
 1.038000000000000E+10  -8.638673033268923E-1   -3.588952023957478E-1
 1.039000000000000E+10  -8.995827345972840E-1   -2.564677582559322E-1
 1.040000000000000E+10  -9.226060177093666E-1   -1.478088209279913E-1
 1.041000000000000E+10  -9.321526842090678E-1   -3.351232151162614E-2
 1.042000000000000E+10  -9.272795382329718E-1    8.494639462835228E-2
 1.043000000000000E+10  -9.070078945262173E-1    2.055700695693865E-1
 1.044000000000000E+10  -8.713797886967748E-1    3.255874577418362E-1
 1.045000000000000E+10  -8.204100135655613E-1    4.414977199515853E-1
 1.046000000000000E+10  -7.551413575282920E-1    5.502342996448744E-1
 1.047000000000000E+10  -6.766863280941715E-1    6.488358637325639E-1
 1.048000000000000E+10  -5.862794379694610E-1    7.349761000222590E-1
 1.049000000000000E+10  -4.852283575129779E-1    8.075521790339851E-1
 1.050000000000000E+10  -3.753639226693901E-1    8.649809517942927E-1
 1.051000000000000E+10  -2.583485269559213E-1    9.069236921130904E-1
 1.052000000000000E+10  -1.360707901273503E-1    9.330522144650685E-1
 1.053000000000000E+10  -1.117669878264911E-2    9.433762098955254E-1
 1.054000000000000E+10   1.131949746582344E-1    9.380109004969971E-1
 1.055000000000000E+10   2.343051019418164E-1    9.179095807799598E-1
 1.056000000000000E+10   3.490236612338817E-1    8.842567988141156E-1
 1.057000000000000E+10   4.558760265392240E-1    8.381363045548518E-1
 1.058000000000000E+10   5.529199427913866E-1    7.810416091525906E-1
 1.059000000000000E+10   6.397010868229738E-1    7.146374078107818E-1
 1.060000000000000E+10   7.161712642274397E-1    6.396025888532950E-1
 1.061000000000000E+10   7.823157434906544E-1    5.570928317535236E-1
 1.062000000000000E+10   8.384335570142339E-1    4.684431335296324E-1
 1.063000000000000E+10   8.844295887306493E-1    3.753184595592320E-1
 1.064000000000000E+10   9.207609090110686E-1    2.792876489229278E-1
 1.065000000000000E+10   9.468503673742643E-1    1.819449850748253E-1
 1.066000000000000E+10   9.630368947374869E-1    8.522120908605223E-2
 1.067000000000000E+10   9.692637149982614E-1   -9.091363136049153E-3
 1.068000000000000E+10   9.660218565700432E-1   -1.004705485202954E-1
 1.069000000000000E+10   9.538622085960472E-1   -1.882254570755590E-1
 1.070000000000000E+10   9.331132274923667E-1   -2.725612291289427E-1
 1.071000000000000E+10   9.041686062584325E-1   -3.539412405466886E-1
 1.072000000000000E+10   8.679855766458926E-1   -4.320500834849032E-1
 1.073000000000000E+10   8.247939992972346E-1   -5.073126434631416E-1
 1.074000000000000E+10   7.757889571794678E-1   -5.786806043611955E-1
 1.075000000000000E+10   7.213176938621289E-1   -6.457333023375766E-1
 1.076000000000000E+10   6.625731528960366E-1   -7.076418575108282E-1
 1.077000000000000E+10   5.998377944797842E-1   -7.633721774130401E-1
 1.078000000000000E+10   5.346043201938407E-1   -8.122004445808464E-1
 1.079000000000000E+10   4.667289513517691E-1   -8.535674056400445E-1
 1.080000000000000E+10   3.966670594963975E-1   -8.879142970542108E-1
 1.081000000000000E+10   3.239251534069008E-1   -9.153146361173888E-1
 1.082000000000000E+10   2.490013991749814E-1   -9.360127866710990E-1
 1.083000000000000E+10   1.712235371062544E-1   -9.508046614810797E-1
 1.084000000000000E+10   9.137960852120706E-2   -9.593841989115740E-1
 1.085000000000000E+10   1.005743010172253E-2   -9.623759474814098E-1
 1.086000000000000E+10  -7.212790518022977E-2   -9.592235973044586E-1
 1.087000000000000E+10  -1.536792314643444E-1   -9.499225293475639E-1
 1.088000000000000E+10  -2.330579407613567E-1   -9.344448825233546E-1
 1.089000000000000E+10  -3.098738892384284E-1   -9.123887723646079E-1
 1.090000000000000E+10  -3.832643740174001E-1   -8.837703534205968E-1
 1.091000000000000E+10  -4.531890379516730E-1   -8.484650998555876E-1
 1.092000000000000E+10  -5.195910018885856E-1   -8.069374676301393E-1
 1.093000000000000E+10  -5.828314170292752E-1   -7.589565643990152E-1
 1.094000000000000E+10  -6.430345931360544E-1   -7.048474410921478E-1
 1.095000000000000E+10  -6.999496337583524E-1   -6.445666095240945E-1
 1.096000000000000E+10  -7.528656233544100E-1   -5.786317011029598E-1
 1.097000000000000E+10  -8.012170065340778E-1   -5.076785191829227E-1
 1.098000000000000E+10  -8.434948828113820E-1   -4.324867044096293E-1
 1.099000000000000E+10  -8.788389314482287E-1   -3.542931765461405E-1
 1.100000000000000E+10  -9.065297318918267E-1   -2.738516806087111E-1
 1.101000000000000E+10  -9.263575471937746E-1   -1.918112627137123E-1
 1.102000000000000E+10  -9.379808248042653E-1   -1.085289091330965E-1
 1.103000000000000E+10  -9.416002334834731E-1   -2.400888669572978E-2
 1.104000000000000E+10  -9.371939680608380E-1    6.134028467506587E-2
 1.105000000000000E+10  -9.249298284921560E-1    1.474785789747163E-1
 1.106000000000000E+10  -9.047741273647342E-1    2.337260401266758E-1
 1.107000000000000E+10  -8.764946581112659E-1    3.193129574283577E-1
 1.108000000000000E+10  -8.403188467292786E-1    4.030268986193905E-1
 1.109000000000000E+10  -7.962606784263830E-1    4.831143320254161E-1
 1.110000000000000E+10  -7.444455045065026E-1    5.587119687832373E-1
 1.111000000000000E+10  -6.854991251149711E-1    6.281663025249803E-1
 1.112000000000000E+10  -6.202123974318630E-1    6.908133574764054E-1
 1.113000000000000E+10  -5.492136744609876E-1    7.463066559729133E-1
 1.114000000000000E+10  -4.731312401303448E-1    7.946049448674309E-1
 1.115000000000000E+10  -3.923731173885311E-1    8.356633658757815E-1
 1.116000000000000E+10  -3.078441681461162E-1    8.694232714506337E-1
 1.117000000000000E+10  -2.198047014085150E-1    8.955128934046698E-1
 1.118000000000000E+10  -1.292451218725535E-1    9.131172221059516E-1
 1.119000000000000E+10  -3.744734395563374E-2    9.220236688266989E-1
 1.120000000000000E+10   5.418045348138892E-2    9.217673739920752E-1
 1.121000000000000E+10   1.446942216043966E-1    9.121266202504223E-1
 1.122000000000000E+10   2.331494630378993E-1    8.933629722699959E-1
 1.123000000000000E+10   3.186207013918317E-1    8.657069463110202E-1
 1.124000000000000E+10   4.007260032860413E-1    8.301100363554573E-1
 1.125000000000000E+10   4.790531871864548E-1    7.868685375131304E-1
 1.126000000000000E+10   5.529575040420961E-1    7.367717956415921E-1
 1.127000000000000E+10   6.224372611822044E-1    6.801146776950682E-1
 1.128000000000000E+10   6.864080808169707E-1    6.176168660648393E-1
 1.129000000000000E+10   7.443689257773951E-1    5.493173563484867E-1
 1.130000000000000E+10   7.952602642462183E-1    4.764554292125844E-1
 1.131000000000000E+10   8.385302993191288E-1    3.994150587174372E-1
 1.132000000000000E+10   8.734369641431012E-1    3.192697152640272E-1
 1.133000000000000E+10   9.000496286412843E-1    2.366422092454825E-1
 1.134000000000000E+10   9.185373423361278E-1    1.524382846807554E-1
 1.135000000000000E+10   9.292885862208810E-1    6.722933142356335E-2
 1.136000000000000E+10   9.322645771745440E-1   -1.850217365582407E-2
 1.137000000000000E+10   9.279457691572465E-1   -1.043479870653417E-1
 1.138000000000000E+10   9.165205280909062E-1   -1.897028684281991E-1
 1.139000000000000E+10   8.973829018297569E-1   -2.739173893447083E-1
 1.140000000000000E+10   8.705066843764779E-1   -3.560150327200481E-1
 1.141000000000000E+10   8.360810524375415E-1   -4.355251450066154E-1
 1.142000000000000E+10   7.939187050767502E-1   -5.110181703584442E-1
 1.143000000000000E+10   7.447049723751844E-1   -5.820018052343626E-1
 1.144000000000000E+10   6.892327288388967E-1   -6.477323307784389E-1
 1.145000000000000E+10   6.278944734939844E-1   -7.078850809100632E-1
 1.146000000000000E+10   5.613123728356301E-1   -7.628535835332764E-1
 1.147000000000000E+10   4.901367809405203E-1   -8.119657835969218E-1
 1.148000000000000E+10   4.143406915477788E-1   -8.547007012914739E-1
 1.149000000000000E+10   3.349253117424359E-1   -8.910085328085323E-1
 1.150000000000000E+10   2.515950172738734E-1   -9.198730349325158E-1
 1.151000000000000E+10   1.654635001832263E-1   -9.406953752658946E-1
 1.152000000000000E+10   7.755410115958029E-2   -9.532363611115634E-1
 1.153000000000000E+10  -1.176622295497674E-2   -9.571449665977455E-1
 1.154000000000000E+10  -1.014861882237238E-1   -9.520317659882040E-1
 1.155000000000000E+10  -1.905540638599801E-1   -9.381300535371148E-1
 1.156000000000000E+10  -2.780262683784379E-1   -9.157434587599974E-1
 1.157000000000000E+10  -3.635810305257708E-1   -8.854860554088553E-1
 1.158000000000000E+10  -4.463800839885781E-1   -8.474963853075073E-1
 1.159000000000000E+10  -5.255475452911332E-1   -8.016325319680681E-1
 1.160000000000000E+10  -6.010663443231413E-1   -7.476152280945804E-1
 1.161000000000000E+10  -6.714812911728938E-1   -6.859560663331873E-1
 1.162000000000000E+10  -7.360331038886937E-1   -6.159490203619206E-1
 1.163000000000000E+10  -7.933838378403889E-1   -5.388221814288423E-1
 1.164000000000000E+10  -8.427930489179185E-1   -4.551390190410838E-1
 1.165000000000000E+10  -8.841896499955433E-1   -3.662034478639399E-1
 1.166000000000000E+10  -9.161745885194690E-1   -2.735489590480117E-1
 1.167000000000000E+10  -9.393296398605635E-1   -1.780216110530263E-1
 1.168000000000000E+10  -9.530061483745059E-1   -8.094136813463040E-2
 1.169000000000000E+10  -9.566797871189106E-1    1.714158496823255E-2
 1.170000000000000E+10  -9.504560286426662E-1    1.154572843594987E-1
 1.171000000000000E+10  -9.333565631734522E-1    2.124155546100177E-1
 1.172000000000000E+10  -9.055717841433979E-1    3.075489863834541E-1
 1.173000000000000E+10  -8.670583315354076E-1    3.999752849101199E-1
 1.174000000000000E+10  -8.179261403993344E-1    4.887614887423121E-1
 1.175000000000000E+10  -7.591441150433500E-1    5.723184332461410E-1
 1.176000000000000E+10  -6.917275907073320E-1    6.497760552600559E-1
 1.177000000000000E+10  -6.166987574909639E-1    7.198180234786095E-1
 1.178000000000000E+10  -5.353436686269165E-1    7.816542575974369E-1
 1.179000000000000E+10  -4.492823993998584E-1    8.341568142792584E-1
 1.180000000000000E+10  -3.592053803422791E-1    8.768487726201964E-1
 1.181000000000000E+10  -2.659188040116825E-1    9.092838681707438E-1
 1.182000000000000E+10  -1.703380273927735E-1    9.312096940823655E-1
 1.183000000000000E+10  -7.290511495439368E-2    9.421380996650968E-1
 1.184000000000000E+10   2.471700522008749E-2    9.422261486789971E-1
 1.185000000000000E+10   1.218619367781545E-1    9.321470269675383E-1
 1.186000000000000E+10   2.169154777192601E-1    9.123286148002042E-1
 1.187000000000000E+10   3.089779703779802E-1    8.836936515735863E-1
 1.188000000000000E+10   3.969648023598180E-1    8.470599828956700E-1
 1.189000000000000E+10   4.798789112905262E-1    8.030079712647518E-1
 1.190000000000000E+10   5.569254198200022E-1    7.520463885628909E-1
 1.191000000000000E+10   6.275981012895850E-1    6.943452162342635E-1
 1.192000000000000E+10   6.910720910770791E-1    6.305942321839692E-1
 1.193000000000000E+10   7.471105511761204E-1    5.610514201655311E-1
 1.194000000000000E+10   7.954984871345918E-1    4.863099340390893E-1
 1.195000000000000E+10   8.363345941742008E-1    4.076177875049514E-1
 1.196000000000000E+10   8.695876910433846E-1    3.257298786458077E-1
 1.197000000000000E+10   8.955153848220684E-1    2.422267297586590E-1
 1.198000000000000E+10   9.138954281046547E-1    1.579904269332123E-1
 1.199000000000000E+10   9.254163973549399E-1    7.434958640802523E-2
 1.200000000000000E+10   9.297656115521560E-1   -7.851994821992858E-3
 1.201000000000000E+10   9.268714375437340E-1   -8.834636388960242E-2
 1.202000000000000E+10   9.170755544808230E-1   -1.666352643024245E-1
 1.203000000000000E+10   9.001006399099530E-1   -2.427330832895054E-1
 1.204000000000000E+10   8.760467963780694E-1   -3.166264716604733E-1
 1.205000000000000E+10   8.452744135789640E-1   -3.885786713508663E-1
 1.206000000000000E+10   8.082569873302493E-1   -4.580093753430096E-1
 1.207000000000000E+10   7.656064133309715E-1   -5.244252925183184E-1
 1.208000000000000E+10   7.182302741265940E-1   -5.876831976207100E-1
 1.209000000000000E+10   6.668865024137770E-1   -6.465830027905803E-1
 1.210000000000000E+10   6.123158376159479E-1   -7.008250258049240E-1
 1.211000000000000E+10   5.547558807176756E-1   -7.497787521535351E-1
 1.212000000000000E+10   4.944932030625810E-1   -7.930034673097714E-1
 1.213000000000000E+10   4.315196213396154E-1   -8.303192682165089E-1
 1.214000000000000E+10   3.653403951417799E-1   -8.616254977317079E-1
 1.215000000000000E+10   2.966641772713000E-1   -8.871800915409369E-1
 1.216000000000000E+10   2.251392499508385E-1   -9.069938246040116E-1
 1.217000000000000E+10   1.513261865514228E-1   -9.214313132387517E-1
 1.218000000000000E+10   7.602228682103317E-2   -9.305416670357922E-1
 1.219000000000000E+10   1.378737834273306E-5   -9.346232754390131E-1
 1.220000000000000E+10  -7.571650992763899E-2   -9.335078156765942E-1
 1.221000000000000E+10  -1.503403381945236E-1   -9.268720686710603E-1
 1.222000000000000E+10  -2.235336143790042E-1   -9.147701270308907E-1
 1.223000000000000E+10  -2.943586829956572E-1   -8.966847462797068E-1
 1.224000000000000E+10  -3.629929465866530E-1   -8.725703256321217E-1
 1.225000000000000E+10  -4.296634428052144E-1   -8.419697009917710E-1
 1.226000000000000E+10  -4.943874630398377E-1   -8.051468734978799E-1
 1.227000000000000E+10  -5.570584959923983E-1   -7.616195131992582E-1
 1.228000000000000E+10  -6.173421916743721E-1   -7.124008093950401E-1
 1.229000000000000E+10  -6.748737930576634E-1   -6.580808532662081E-1
 1.230000000000000E+10  -7.288084108890286E-1   -5.992813168932893E-1
 1.231000000000000E+10  -7.785575222323606E-1   -5.364625895712744E-1
 1.232000000000000E+10  -8.232902788371720E-1   -4.706790709129154E-1
 1.233000000000000E+10  -8.618200721909020E-1   -4.020955823414490E-1
 1.234000000000000E+10  -8.942710117552122E-1   -3.308762229065040E-1
 1.235000000000000E+10  -9.198653367719304E-1   -2.565752309704806E-1
 1.236000000000000E+10  -9.383823388371839E-1   -1.795894171057627E-1
 1.237000000000000E+10  -9.499194173724327E-1   -9.917873616066701E-2
 1.238000000000000E+10  -9.541402179953375E-1   -1.613858764023486E-2
 1.239000000000000E+10  -9.512692020385630E-1    6.954107740838723E-2
 1.240000000000000E+10  -9.412564801968862E-1    1.562940388777440E-1
 1.241000000000000E+10  -9.239934772079582E-1    2.430499977347218E-1
 1.242000000000000E+10  -8.991809304743458E-1    3.285162588260717E-1
 1.243000000000000E+10  -8.666566514891308E-1    4.115633834672575E-1
 1.244000000000000E+10  -8.267028016388674E-1    4.908100787767315E-1
 1.245000000000000E+10  -7.786925219499918E-1    5.657524039181667E-1
 1.246000000000000E+10  -7.223498652340076E-1    6.359947112799975E-1
 1.247000000000000E+10  -6.581831399320949E-1    7.009063998826349E-1
 1.248000000000000E+10  -5.861298804508326E-1    7.603764455963816E-1
 1.249000000000000E+10  -5.063724875100067E-1    8.138784769329047E-1
 1.250000000000000E+10  -4.201925719869988E-1    8.602265164516980E-1
