#  HZ   S   RI   R     50.00 
! Rohde & Schwarz Vector Network Analyzer 
! Rohde-Schwarz,ZNA43-4Port,1332450044101932,2.92
! Created: UTC 6/1/2026, 11:43:34 AM
! freq[Hz]                re:S11                  im:S11
 8.000000000000000E9    -2.797205280014488E-1    9.339357215534970E-1
 8.010000000000000E9    -1.947093373234195E-1    9.573753324943117E-1
 8.020000000000000E9    -1.107589588492219E-1    9.725586809776746E-1
 8.030000000000000E9    -2.785872114002860E-2    9.796661388071123E-1
 8.040000000000000E9     5.449450986240185E-2    9.788838633143526E-1
 8.050000000000000E9     1.361485584014989E-1    9.707354773064698E-1
 8.060000000000000E9     2.165316775821588E-1    9.549152289113694E-1
 8.070000000000000E9     2.956373647709021E-1    9.325363264125909E-1
 8.080000000000000E9     3.726340449868921E-1    9.040841316495010E-1
 8.090000000000000E9     4.468932246877588E-1    8.698103786084895E-1
 8.100000000000000E9     5.182885985271246E-1    8.299487382255601E-1
 8.110000000000000E9     5.860488150953538E-1    7.849093255011368E-1
 8.120000000000000E9     6.495516334393306E-1    7.347059173290321E-1
 8.130000000000000E9     7.085173433455684E-1    6.785855106258287E-1
 8.140000000000000E9     7.627768207196515E-1    6.167365199201930E-1
 8.150000000000000E9     8.121918490496630E-1    5.484900917466349E-1
 8.160000000000000E9     8.560329962245804E-1    4.745277024696004E-1
 8.170000000000000E9     8.940429317515022E-1    3.945987807915715E-1
 8.180000000000000E9     9.256187749374906E-1    3.096222065531388E-1
 8.190000000000000E9     9.506138114585424E-1    2.202568138723712E-1
 8.200000000000000E9     9.675138445400403E-1    1.273955638680792E-1
 8.210000000000000E9     9.761806906989409E-1    3.146574227929150E-2
 8.220000000000000E9     9.750503878756352E-1   -6.681239460219590E-2
 8.230000000000000E9     9.632421801573942E-1   -1.666575512253117E-1
 8.240000000000000E9     9.393488523016168E-1   -2.676246030344596E-1
 8.250000000000000E9     9.029099256639654E-1   -3.689556554959633E-1
 8.260000000000000E9     8.526836137486054E-1   -4.693777615316811E-1
 8.270000000000000E9     7.881891522170877E-1   -5.672269036819437E-1
 8.280000000000000E9     7.094581572095906E-1   -6.603395749368770E-1
 8.290000000000000E9     6.165276637284418E-1   -7.462060502372376E-1
 8.300000000000000E9     5.109830151899137E-1   -8.217360803656595E-1
 8.310000000000000E9     3.936177344734776E-1   -8.845822946057118E-1
 8.320000000000000E9     2.657928692251240E-1   -9.316166220166099E-1
 8.330000000000000E9     1.291369616851784E-1   -9.603837735696001E-1
 8.340000000000000E9    -1.430950867929503E-2   -9.681297978196539E-1
 8.350000000000000E9    -1.616408515386095E-1   -9.527450606914838E-1
 8.360000000000000E9    -3.092664385292764E-1   -9.127837352123642E-1
 8.370000000000000E9    -4.524028319742133E-1   -8.479347330833682E-1
 8.380000000000000E9    -5.862239503629755E-1   -7.593145101504848E-1
 8.390000000000000E9    -7.054744624566920E-1   -6.492790445734764E-1
 8.400000000000000E9    -8.055912957471635E-1   -5.212890196827140E-1
 8.410000000000000E9    -8.829459724878916E-1   -3.793171247218895E-1
 8.420000000000000E9    -9.347986417031845E-1   -2.280499130964803E-1
 8.430000000000000E9    -9.603110666358231E-1   -7.187743518905804E-2
 8.440000000000000E9    -9.589556425174472E-1    8.474249840002415E-2
 8.450000000000000E9    -9.318395699277839E-1    2.378625098604862E-1
 8.460000000000000E9    -8.807236585003000E-1    3.835959026517807E-1
 8.470000000000000E9    -8.086123681509778E-1    5.179109162819020E-1
 8.480000000000000E9    -7.187262404281629E-1    6.376806662326078E-1
 8.490000000000000E9    -6.150464804081206E-1    7.402625741874369E-1
 8.500000000000000E9    -5.019088970523949E-1    8.238277828434364E-1
 8.510000000000000E9    -3.820332219467515E-1    8.885208172999303E-1
 8.520000000000000E9    -2.586491182359486E-1    9.340907251876537E-1
 8.530000000000000E9    -1.334806103608182E-1    9.609043598284636E-1
 8.540000000000000E9    -8.259187149385044E-3    9.697839054423500E-1
 8.550000000000000E9     1.152023610706654E-1    9.619345312525791E-1
 8.560000000000000E9     2.358907643321759E-1    9.384612934510611E-1
 8.570000000000000E9     3.517649132110450E-1    9.006765026479057E-1
 8.580000000000000E9     4.612170587353090E-1    8.502428367486462E-1
 8.590000000000000E9     5.624240451592422E-1    7.886616364465929E-1
 8.600000000000000E9     6.540885565379676E-1    7.172032786847584E-1
 8.610000000000000E9     7.348097994567502E-1    6.374203886706311E-1
 8.620000000000000E9     8.041001401999176E-1    5.501380810242625E-1
 8.630000000000000E9     8.616497949626930E-1    4.560110512792481E-1
 8.640000000000000E9     9.068148231155917E-1    3.558951853229367E-1
 8.650000000000000E9     9.396404443601836E-1    2.506289739305421E-1
 8.660000000000000E9     9.604534899974411E-1    1.414361858259104E-1
 8.670000000000000E9     9.688943949718238E-1    2.949641578374649E-2
 8.680000000000000E9     9.650539331630175E-1   -8.332264347802525E-2
 8.690000000000000E9     9.491107290643750E-1   -1.952476518824548E-1
 8.700000000000000E9     9.212154434124082E-1   -3.043482293653401E-1
 8.710000000000000E9     8.809084442798834E-1   -4.089154293161222E-1
 8.720000000000000E9     8.292755028460367E-1   -5.076019378422643E-1
 8.730000000000000E9     7.656836129247946E-1   -5.993955051122012E-1
 8.740000000000000E9     6.907285180430397E-1   -6.832664423946629E-1
 8.750000000000000E9     6.049783035311396E-1   -7.583893217239267E-1
 8.760000000000000E9     5.094900786269038E-1   -8.234629082368720E-1
 8.770000000000000E9     4.055340548859713E-1   -8.777203949208428E-1
 8.780000000000000E9     2.951949521667090E-1   -9.198514556070571E-1
 8.790000000000000E9     1.806302220286470E-1   -9.491378428852546E-1
 8.800000000000000E9     6.369388662330489E-2   -9.649067125470476E-1
 8.810000000000000E9    -5.326450327864307E-2   -9.666521062789707E-1
 8.820000000000000E9    -1.686725147388200E-1   -9.539418445998310E-1
 8.830000000000000E9    -2.811449640496878E-1   -9.269027678434938E-1
 8.840000000000000E9    -3.891451605200541E-1   -8.861215674119317E-1
 8.850000000000000E9    -4.915558875692054E-1   -8.321560021060472E-1
 8.860000000000000E9    -5.873454953744079E-1   -7.660582291391650E-1
 8.870000000000000E9    -6.749457068927468E-1   -6.888490851171332E-1
 8.880000000000000E9    -7.530247046771690E-1   -6.022691920371227E-1
 8.890000000000000E9    -8.202413967348785E-1   -5.085763792724681E-1
 8.900000000000000E9    -8.756264021237237E-1   -4.091378164965266E-1
 8.910000000000000E9    -9.182030871166225E-1   -3.062745352628723E-1
 8.920000000000000E9    -9.480686673453017E-1   -2.013062780314751E-1
 8.930000000000000E9    -9.648830712962768E-1   -9.540832536697456E-2
 8.940000000000000E9    -9.692018086515403E-1    1.052825601825211E-2
 8.950000000000000E9    -9.614649334265668E-1    1.152516155256606E-1
 8.960000000000000E9    -9.424529949355273E-1    2.179293292156797E-1
 8.970000000000000E9    -9.129675985494226E-1    3.178251581019501E-1
 8.980000000000000E9    -8.739975071865869E-1    4.134283531675795E-1
 8.990000000000000E9    -8.265535570586152E-1    5.036266036664776E-1
 9.000000000000000E9    -7.715093084268264E-1    5.871045661585959E-1
 9.010000000000000E9    -7.101675754514040E-1    6.630335917005394E-1
 9.020000000000000E9    -6.429815739612047E-1    7.306381778421283E-1
 9.030000000000000E9    -5.705731530688726E-1    7.897565653434140E-1
 9.040000000000000E9    -4.936670587996507E-1    8.403637780512084E-1
 9.050000000000000E9    -4.124851606611063E-1    8.825935129508257E-1
 9.060000000000000E9    -3.276243671065811E-1    9.165007058562732E-1
 9.070000000000000E9    -2.398555566604463E-1    9.424769570086983E-1
 9.080000000000000E9    -1.497712330938306E-1    9.606844519638258E-1
 9.090000000000000E9    -5.843874255310881E-2    9.709775279233092E-1
 9.100000000000000E9     3.309908857765153E-2    9.732480656505581E-1
 9.110000000000000E9     1.234987567383405E-1    9.675565848624939E-1
 9.120000000000000E9     2.120516045919648E-1    9.535605176091041E-1
 9.130000000000000E9     2.978321005927355E-1    9.314830627174248E-1
 9.140000000000000E9     3.806284827514795E-1    9.012957312642861E-1
 9.150000000000000E9     4.598546569660765E-1    8.632607796611741E-1
 9.160000000000000E9     5.358949989875604E-1    8.172202585720597E-1
 9.170000000000000E9     6.083195040358209E-1    7.634060377472310E-1
 9.180000000000000E9     6.771010653546137E-1    7.021081197093826E-1
 9.190000000000000E9     7.413435096219552E-1    6.334234937606348E-1
 9.200000000000000E9     8.001550423036732E-1    5.572644938352821E-1
 9.210000000000000E9     8.522492112087787E-1    4.746738923344063E-1
 9.220000000000000E9     8.961954621048509E-1    3.861219857342650E-1
 9.230000000000000E9     9.314135133605861E-1    2.918019490088779E-1
 9.240000000000000E9     9.560283565385800E-1    1.928530004920042E-1
 9.250000000000000E9     9.698807522288099E-1    8.972341504099032E-2
 9.260000000000000E9     9.721434376054603E-1   -1.672490461593396E-2
 9.270000000000000E9     9.620670947417761E-1   -1.258680413992898E-1
 9.280000000000000E9     9.390399241058281E-1   -2.367342127364890E-1
 9.290000000000000E9     9.020093040231426E-1   -3.480791715762848E-1
 9.300000000000000E9     8.500189792228712E-1   -4.581303542961735E-1
 9.310000000000000E9     7.824592606506232E-1   -5.639354821722657E-1
 9.320000000000000E9     6.985547903386808E-1   -6.628691766846750E-1
 9.330000000000000E9     5.992307229803898E-1   -7.515628220290229E-1
 9.340000000000000E9     4.850051000379016E-1   -8.267262583149806E-1
 9.350000000000000E9     3.581125997866008E-1   -8.851467061065866E-1
 9.360000000000000E9     2.206364292292960E-1   -9.246527069079766E-1
 9.370000000000000E9     7.574334322611090E-2   -9.433404330274370E-1
 9.380000000000000E9    -7.330965626136163E-2   -9.396116292529173E-1
 9.390000000000000E9    -2.226785765122018E-1   -9.122690068284099E-1
 9.400000000000000E9    -3.676053250401359E-1   -8.608890347447454E-1
 9.410000000000000E9    -5.033790427744264E-1   -7.864787120473924E-1
 9.420000000000000E9    -6.251216349081696E-1   -6.906908665933382E-1
 9.430000000000000E9    -7.286085101713828E-1   -5.769217624129516E-1
 9.440000000000000E9    -8.105163347125340E-1   -4.497946315945906E-1
 9.450000000000000E9    -8.699261994638060E-1   -3.140021756023561E-1
 9.460000000000000E9    -9.067209598452983E-1   -1.741337957757865E-1
 9.470000000000000E9    -9.214578254504284E-1   -3.453543130518286E-2
 9.480000000000000E9    -9.159364309737589E-1    1.017759770203386E-1
 9.490000000000000E9    -8.922940028508682E-1    2.317755816182828E-1
 9.500000000000000E9    -8.516645839327719E-1    3.533953470851072E-1
 9.510000000000000E9    -7.974858654300252E-1    4.646958442266897E-1
 9.520000000000000E9    -7.314460568895568E-1    5.642892794082051E-1
 9.530000000000000E9    -6.558344687938205E-1    6.510455705638793E-1
 9.540000000000000E9    -5.732918778097286E-1    7.251824750588162E-1
 9.550000000000000E9    -4.862823575090791E-1    7.866535569117835E-1
 9.560000000000000E9    -3.970013386317554E-1    8.362627411275975E-1
 9.570000000000000E9    -3.067749979739582E-1    8.746285229729361E-1
 9.580000000000000E9    -2.168617527882592E-1    9.029638999236913E-1
 9.590000000000000E9    -1.279539727962582E-1    9.217395863045988E-1
 9.600000000000000E9    -4.068630996919060E-2    9.314901094307162E-1
 9.610000000000000E9     4.458422512970839E-2    9.328789801401044E-1
 9.620000000000000E9     1.274506381829174E-1    9.263821661124564E-1
 9.630000000000000E9     2.072920137484370E-1    9.123987629289257E-1
 9.640000000000000E9     2.838693658849879E-1    8.918992451363916E-1
 9.650000000000000E9     3.564196115148652E-1    8.654979508431818E-1
 9.660000000000000E9     4.250081667979749E-1    8.344195941481911E-1
 9.670000000000000E9     4.895811648416529E-1    7.992763305536271E-1
 9.680000000000000E9     5.500032100263647E-1    7.606429458791011E-1
 9.690000000000000E9     6.061483089913802E-1    7.187910366683118E-1
 9.700000000000000E9     6.581823327846111E-1    6.736805643199660E-1
 9.710000000000000E9     7.059527169393409E-1    6.256973946912839E-1
 9.720000000000000E9     7.494531027091911E-1    5.745534513221442E-1
 9.730000000000000E9     7.885443462083022E-1    5.205085874602841E-1
 9.740000000000000E9     8.232264255852343E-1    4.639087476530664E-1
 9.750000000000000E9     8.535704857454858E-1    4.049694163662000E-1
 9.760000000000000E9     8.796165593508671E-1    3.440940755874669E-1
 9.770000000000000E9     9.014445843880186E-1    2.821571074301943E-1
 9.780000000000000E9     9.193550039416072E-1    2.193716427168213E-1
 9.790000000000000E9     9.331618602112436E-1    1.559923982716883E-1
 9.800000000000000E9     9.428337528355226E-1    9.223868922580529E-2
 9.810000000000000E9     9.481727712360442E-1    2.781022623682241E-2
 9.820000000000000E9     9.489019972122431E-1   -3.728223068275018E-2
 9.830000000000000E9     9.445758828144110E-1   -1.031717357373679E-1
 9.840000000000000E9     9.349924482798482E-1   -1.698062811697674E-1
 9.850000000000000E9     9.199368935730625E-1   -2.369112066198055E-1
 9.860000000000000E9     8.995869417076523E-1   -3.040144043490757E-1
 9.870000000000000E9     8.739824760372914E-1   -3.704123401365723E-1
 9.880000000000000E9     8.434475857263100E-1   -4.357861063717073E-1
 9.890000000000000E9     8.081646704202143E-1   -4.996084461995935E-1
 9.900000000000000E9     7.679840284183216E-1   -5.614215782481201E-1
 9.910000000000000E9     7.225264651215255E-1   -6.207817693755371E-1
 9.920000000000000E9     6.713031634031518E-1   -6.774515963816599E-1
 9.930000000000000E9     6.136432855398560E-1   -7.310172818999159E-1
 9.940000000000000E9     5.491555559576261E-1   -7.806326665681848E-1
 9.950000000000000E9     4.774028661576850E-1   -8.260276567447720E-1
 9.960000000000000E9     3.982895438749008E-1   -8.661812019909665E-1
 9.970000000000000E9     3.125950756168335E-1   -9.000872491840813E-1
 9.980000000000000E9     2.208121769224495E-1   -9.267989193148908E-1
 9.990000000000000E9     1.241511343528689E-1   -9.451852403069426E-1
 1.000000000000000E+10   2.374709959296258E-2   -9.539029047631662E-1
 1.001000000000000E+10  -8.057216916927347E-2   -9.529677236659676E-1
 1.002000000000000E+10  -1.869948087827984E-1   -9.394396038543287E-1
 1.003000000000000E+10  -2.949987915873707E-1   -9.123166952131004E-1
 1.004000000000000E+10  -4.035459522533850E-1   -8.698152788145848E-1
 1.005000000000000E+10  -5.106323953020131E-1   -8.107321274042724E-1
 1.006000000000000E+10  -6.135931191335037E-1   -7.341661791669551E-1
 1.007000000000000E+10  -7.095440228469894E-1   -6.407150110430648E-1
 1.008000000000000E+10  -7.945307829156686E-1   -5.309324986026390E-1
 1.009000000000000E+10  -8.652389639998618E-1   -4.072727103720476E-1
 1.010000000000000E+10  -9.186210318632622E-1   -2.724831096955821E-1
 1.011000000000000E+10  -9.515496283473649E-1   -1.297476418282483E-1
 1.012000000000000E+10  -9.625811631010337E-1    1.782364160249309E-2
 1.013000000000000E+10  -9.495890470484368E-1    1.666448085063419E-1
 1.014000000000000E+10  -9.118124574842899E-1    3.127046002061491E-1
 1.015000000000000E+10  -8.501957109718874E-1    4.521504505557786E-1
 1.016000000000000E+10  -7.662453587773532E-1    5.807884679909567E-1
 1.017000000000000E+10  -6.633625117731624E-1    6.942452273735431E-1
 1.018000000000000E+10  -5.458413228949967E-1    7.896332887576306E-1
 1.019000000000000E+10  -4.188196554729022E-1    8.647238020511574E-1
 1.020000000000000E+10  -2.869113994470976E-1    9.184548387159861E-1
 1.021000000000000E+10  -1.541799612497994E-1    9.514645392863639E-1
 1.022000000000000E+10  -2.354915672329423E-2    9.647554978431255E-1
 1.023000000000000E+10   1.029936214837638E-1    9.600946718189226E-1
 1.024000000000000E+10   2.242368956740447E-1    9.384671063502147E-1
 1.025000000000000E+10   3.389684346975477E-1    9.022337472872979E-1
 1.026000000000000E+10   4.459796350301983E-1    8.529120372281191E-1
 1.027000000000000E+10   5.443241957153897E-1    7.929826500022283E-1
 1.028000000000000E+10   6.326638916629012E-1    7.246125519600999E-1
 1.029000000000000E+10   7.100732030164664E-1    6.505258298724107E-1
 1.030000000000000E+10   7.764950223101085E-1    5.724485583972818E-1
 1.031000000000000E+10   8.317023369761672E-1    4.918418421284911E-1
 1.032000000000000E+10   8.764310087217935E-1    4.099414673701399E-1
 1.033000000000000E+10   9.109800554041341E-1    3.267838750275090E-1
 1.034000000000000E+10   9.361775881761696E-1    2.429702106278935E-1
 1.035000000000000E+10   9.526270066945755E-1    1.586124950098987E-1
 1.036000000000000E+10   9.613190471265426E-1    7.358759809599073E-2
 1.037000000000000E+10   9.627644894819772E-1   -1.137458779793969E-2
 1.038000000000000E+10   9.577020771114896E-1   -9.534026794589112E-2
 1.039000000000000E+10   9.464798200974656E-1   -1.770725950059666E-1
 1.040000000000000E+10   9.296610113979982E-1   -2.558931401503584E-1
 1.041000000000000E+10   9.076171314656709E-1   -3.307474947351514E-1
 1.042000000000000E+10   8.801647620718519E-1   -4.012911839482448E-1
 1.043000000000000E+10   8.476440909011268E-1   -4.674100898225123E-1
 1.044000000000000E+10   8.097212813014747E-1   -5.295288497507591E-1
 1.045000000000000E+10   7.667610751553416E-1   -5.878043712933657E-1
 1.046000000000000E+10   7.182169122168672E-1   -6.427303239569013E-1
 1.047000000000000E+10   6.648503193787491E-1   -6.945674786416041E-1
 1.048000000000000E+10   6.072561221357656E-1   -7.431553787231462E-1
 1.049000000000000E+10   5.459423886806882E-1   -7.879326805668343E-1
 1.050000000000000E+10   4.819299232850721E-1   -8.285056524745502E-1
 1.051000000000000E+10   4.160357976051359E-1   -8.643708221867988E-1
 1.052000000000000E+10   3.488550189748716E-1   -8.946530085817140E-1
 1.053000000000000E+10   2.804945963225096E-1   -9.192225648015329E-1
 1.054000000000000E+10   2.109083526794365E-1   -9.377077195173650E-1
 1.055000000000000E+10   1.397039181037539E-1   -9.498070014141159E-1
 1.056000000000000E+10   6.650470000203274E-2   -9.557871084644490E-1
 1.057000000000000E+10  -8.794282940635837E-3   -9.553463803285168E-1
 1.058000000000000E+10  -8.590831498765338E-2   -9.488605081603283E-1
 1.059000000000000E+10  -1.644590323753891E-1   -9.361427510067167E-1
 1.060000000000000E+10  -2.432688748225588E-1   -9.174106353261112E-1
 1.061000000000000E+10  -3.214583605397368E-1   -8.926581919137552E-1
 1.062000000000000E+10  -3.974632701250222E-1   -8.619350857844379E-1
 1.063000000000000E+10  -4.704162759270861E-1   -8.250287013532737E-1
 1.064000000000000E+10  -5.395060861253542E-1   -7.815592000700551E-1
 1.065000000000000E+10  -6.042589654663216E-1   -7.314724230597627E-1
 1.066000000000000E+10  -6.647526682990313E-1   -6.745127771616670E-1
 1.067000000000000E+10  -7.206835022657473E-1   -6.102470254698540E-1
 1.068000000000000E+10  -7.719427331748926E-1   -5.385707728356656E-1
 1.069000000000000E+10  -8.181027478517281E-1   -4.598694276489510E-1
 1.070000000000000E+10  -8.582927405412522E-1   -3.748248712338250E-1
 1.071000000000000E+10  -8.913702157765486E-1   -2.845444211244168E-1
 1.072000000000000E+10  -9.160966463837235E-1   -1.905640469931685E-1
 1.073000000000000E+10  -9.316158684883654E-1   -9.432834234696155E-2
 1.074000000000000E+10  -9.368126787677357E-1    3.173253772162815E-3
 1.075000000000000E+10  -9.314003255518200E-1    1.003874558659680E-1
 1.076000000000000E+10  -9.145895564085994E-1    1.971814521308987E-1
 1.077000000000000E+10  -8.865494714066589E-1    2.929590356216555E-1
 1.078000000000000E+10  -8.468714789750740E-1    3.874346014846326E-1
 1.079000000000000E+10  -7.958487801846352E-1    4.794060262069908E-1
 1.080000000000000E+10  -7.338647223567926E-1    5.677225173643748E-1
 1.081000000000000E+10  -6.615674673107899E-1    6.503478829933635E-1
 1.082000000000000E+10  -5.799996751351374E-1    7.258481411502253E-1
 1.083000000000000E+10  -4.905788390036722E-1    7.914420432288787E-1
 1.084000000000000E+10  -3.946672276590055E-1    8.461645382933761E-1
 1.085000000000000E+10  -2.936949663900943E-1    8.882887374149548E-1
 1.086000000000000E+10  -1.891915143650729E-1    9.172463541290605E-1
 1.087000000000000E+10  -8.180970305993733E-2    9.331946222531501E-1
 1.088000000000000E+10   2.754568731717486E-2    9.357495329682153E-1
 1.089000000000000E+10   1.376747425851411E-1    9.255499416571672E-1
 1.090000000000000E+10   2.474148337997439E-1    9.026587698960680E-1
 1.091000000000000E+10   3.547145952442970E-1    8.677546144454884E-1
 1.092000000000000E+10   4.576748789769188E-1    8.210016580367310E-1
 1.093000000000000E+10   5.536566625357839E-1    7.634895775464315E-1
 1.094000000000000E+10   6.412175447534946E-1    6.965821151987430E-1
 1.095000000000000E+10   7.184349193248248E-1    6.213908195418242E-1
 1.096000000000000E+10   7.850355526750350E-1    5.389520247168086E-1
 1.097000000000000E+10   8.406933484719759E-1    4.507122912490092E-1
 1.098000000000000E+10   8.854285279558616E-1    3.571773617542686E-1
 1.099000000000000E+10   9.197352847961893E-1    2.592412269913768E-1
 1.100000000000000E+10   9.434792417678354E-1    1.579401645048338E-1
 1.101000000000000E+10   9.566791368332919E-1    5.433817204783040E-2
 1.102000000000000E+10   9.588776216979219E-1   -5.003054482843659E-2
 1.103000000000000E+10   9.504849772324974E-1   -1.532658317265839E-1
 1.104000000000000E+10   9.313288779260299E-1   -2.537258526819192E-1
 1.105000000000000E+10   9.019242074015347E-1   -3.493803537256180E-1
 1.106000000000000E+10   8.634989903427049E-1   -4.397764311755714E-1
 1.107000000000000E+10   8.163776041211310E-1   -5.239168948974657E-1
 1.108000000000000E+10   7.612303040725351E-1   -6.018805612687546E-1
 1.109000000000000E+10   6.987475864408512E-1   -6.736772711304368E-1
 1.110000000000000E+10   6.297530608315856E-1   -7.391038145295359E-1
 1.111000000000000E+10   5.546614067884658E-1   -7.981590782536976E-1
 1.112000000000000E+10   4.739129826086371E-1   -8.498681364875509E-1
 1.113000000000000E+10   3.885434511042437E-1   -8.937041859595353E-1
 1.114000000000000E+10   2.991215557309185E-1   -9.287381696530363E-1
 1.115000000000000E+10   2.073942164133048E-1   -9.543006000986456E-1
 1.116000000000000E+10   1.139076349028257E-1   -9.699787194866785E-1
 1.117000000000000E+10   1.989442175512085E-2   -9.755641201841228E-1
 1.118000000000000E+10  -7.359306774398597E-2   -9.721007768372391E-1
 1.119000000000000E+10  -1.660906736354241E-1   -9.594262937605885E-1
 1.120000000000000E+10  -2.576985927761625E-1   -9.379872044737849E-1
 1.121000000000000E+10  -3.475212013611390E-1   -9.078847883039171E-1
 1.122000000000000E+10  -4.345686045945583E-1   -8.695355634832255E-1
 1.123000000000000E+10  -5.181166650053556E-1   -8.228320721888801E-1
 1.124000000000000E+10  -5.966514926734862E-1   -7.675978498105775E-1
 1.125000000000000E+10  -6.691578297464880E-1   -7.049642853414178E-1
 1.126000000000000E+10  -7.343570396712555E-1   -6.350971024484040E-1
 1.127000000000000E+10  -7.915803245539328E-1   -5.588453313855686E-1
 1.128000000000000E+10  -8.406492929923415E-1   -4.771493164257470E-1
 1.129000000000000E+10  -8.811474091663699E-1   -3.910032619600756E-1
 1.130000000000000E+10  -9.130762643096388E-1   -3.006710236370776E-1
 1.131000000000000E+10  -9.360807194692778E-1   -2.073121503920415E-1
 1.132000000000000E+10  -9.504409683723872E-1   -1.115312253793653E-1
 1.133000000000000E+10  -9.555751470949090E-1   -1.444267301823305E-2
 1.134000000000000E+10  -9.508523776975976E-1    8.290727726530846E-2
 1.135000000000000E+10  -9.362123893906779E-1    1.794883096661348E-1
 1.136000000000000E+10  -9.113072919625691E-1    2.736526323441170E-1
 1.137000000000000E+10  -8.766160186766437E-1    3.641808937631297E-1
 1.138000000000000E+10  -8.326397373273172E-1    4.500862985494103E-1
 1.139000000000000E+10  -7.803680692449684E-1    5.306392525096446E-1
 1.140000000000000E+10  -7.206405507980945E-1    6.053954772052147E-1
 1.141000000000000E+10  -6.542452571517925E-1    6.738734626352398E-1
 1.142000000000000E+10  -5.817212582114025E-1    7.355886911060170E-1
 1.143000000000000E+10  -5.038014832288228E-1    7.900478554709982E-1
 1.144000000000000E+10  -4.208989511574683E-1    8.366931070360651E-1
 1.145000000000000E+10  -3.338668469082620E-1    8.744726795169636E-1
 1.146000000000000E+10  -2.439393405442635E-1    9.027902416152535E-1
 1.147000000000000E+10  -1.519115036809815E-1    9.215314732166721E-1
 1.148000000000000E+10  -5.905407927186151E-2    9.307959569443698E-1
 1.149000000000000E+10   3.387426558152971E-2    9.305469286496375E-1
 1.150000000000000E+10   1.256347045236691E-1    9.215463457801208E-1
 1.151000000000000E+10   2.157678375769838E-1    9.042408778402830E-1
 1.152000000000000E+10   3.032415394018436E-1    8.787020507545225E-1
 1.153000000000000E+10   3.877775914512408E-1    8.453406773152364E-1
 1.154000000000000E+10   4.683732109084652E-1    8.044892210791976E-1
 1.155000000000000E+10   5.442945519499536E-1    7.563067937187518E-1
 1.156000000000000E+10   6.152014426323289E-1    7.008957335627006E-1
 1.157000000000000E+10   6.797056494181942E-1    6.388647776154727E-1
 1.158000000000000E+10   7.374506534006392E-1    5.712749329562428E-1
 1.159000000000000E+10   7.879822962257984E-1    4.985684011173918E-1
 1.160000000000000E+10   8.313438052551819E-1    4.225031771211953E-1
 1.161000000000000E+10   8.671541757054809E-1    3.437860978591354E-1
 1.162000000000000E+10   8.959085078531702E-1    2.630032074407265E-1
 1.163000000000000E+10   9.174767520102641E-1    1.808706284873254E-1
 1.164000000000000E+10   9.315305159323092E-1    9.789625235606894E-2
 1.165000000000000E+10   9.378882006544846E-1    1.438806567546722E-2
 1.166000000000000E+10   9.361854286319770E-1   -6.935607380377515E-2
 1.167000000000000E+10   9.261730322087937E-1   -1.524261677894312E-1
 1.168000000000000E+10   9.082271042209545E-1   -2.345225773425655E-1
 1.169000000000000E+10   8.829362498475684E-1   -3.148897246966686E-1
 1.170000000000000E+10   8.505883511911159E-1   -3.924573424107088E-1
 1.171000000000000E+10   8.120923262822209E-1   -4.672612729039366E-1
 1.172000000000000E+10   7.678671247365458E-1   -5.379663984668650E-1
 1.173000000000000E+10   7.186705902346390E-1   -6.042622856022741E-1
 1.174000000000000E+10   6.646485065730340E-1   -6.656001303200343E-1
 1.175000000000000E+10   6.058200196801611E-1   -7.214590484360410E-1
 1.176000000000000E+10   5.424802268531647E-1   -7.715177569846381E-1
 1.177000000000000E+10   4.746340649565091E-1   -8.155918012346228E-1
 1.178000000000000E+10   4.025018785163463E-1   -8.534263349639175E-1
 1.179000000000000E+10   3.261333992669804E-1   -8.845888303724629E-1
 1.180000000000000E+10   2.464197156801851E-1   -9.093029459774549E-1
 1.181000000000000E+10   1.639311523362098E-1   -9.272809159242920E-1
 1.182000000000000E+10   7.980404558973135E-2   -9.383233771441203E-1
 1.183000000000000E+10  -5.166144025794868E-3   -9.429464537232757E-1
 1.184000000000000E+10  -9.044779062239357E-2   -9.401542096968452E-1
 1.185000000000000E+10  -1.751160039442661E-1   -9.298477038068628E-1
 1.186000000000000E+10  -2.589533184030698E-1   -9.118702032509599E-1
 1.187000000000000E+10  -3.411559615029196E-1   -8.855593970562983E-1
 1.188000000000000E+10  -4.211882178676626E-1   -8.507785738027854E-1
 1.189000000000000E+10  -4.983549771593742E-1   -8.075722017137479E-1
 1.190000000000000E+10  -5.719692501534452E-1   -7.564222707380127E-1
 1.191000000000000E+10  -6.416888377096102E-1   -6.980326573938582E-1
 1.192000000000000E+10  -7.067601123773847E-1   -6.324845335424611E-1
 1.193000000000000E+10  -7.658834532527010E-1   -5.606561053280740E-1
 1.194000000000000E+10  -8.186653863006621E-1   -4.835854173637584E-1
 1.195000000000000E+10  -8.637471234375584E-1   -4.012901165275464E-1
 1.196000000000000E+10  -9.006653947936331E-1   -3.142076265511786E-1
 1.197000000000000E+10  -9.279081560790434E-1   -2.222552990808935E-1
 1.198000000000000E+10  -9.457048875310912E-1   -1.266479516162618E-1
 1.199000000000000E+10  -9.524444528431111E-1   -2.769030930784991E-2
 1.200000000000000E+10  -9.484838104476665E-1    7.375228824888787E-2
 1.201000000000000E+10  -9.333467697473791E-1    1.759809556901476E-1
 1.202000000000000E+10  -9.070388606970371E-1    2.781387536822884E-1
 1.203000000000000E+10  -8.701347432053478E-1    3.777054867549497E-1
 1.204000000000000E+10  -8.229449158313892E-1    4.729362749168188E-1
 1.205000000000000E+10  -7.660481186332188E-1    5.620614046637291E-1
 1.206000000000000E+10  -6.995309321153255E-1    6.438904324565456E-1
 1.207000000000000E+10  -6.240601181677083E-1    7.175936658771088E-1
 1.208000000000000E+10  -5.397289381441669E-1    7.817971492979979E-1
 1.209000000000000E+10  -4.471911626389622E-1    8.357023287116695E-1
 1.210000000000000E+10  -3.477858259388669E-1    8.786772512740226E-1
 1.211000000000000E+10  -2.429182243802112E-1    9.099989376907127E-1
 1.212000000000000E+10  -1.343780538463500E-1    9.298845402266103E-1
 1.213000000000000E+10  -2.462027960052568E-2    9.376391895728370E-1
 1.214000000000000E+10   8.439321080036244E-2    9.338349257745129E-1
 1.215000000000000E+10   1.912589543771023E-1    9.178532157393061E-1
 1.216000000000000E+10   2.939456919805991E-1    8.903522126044343E-1
 1.217000000000000E+10   3.910968743384578E-1    8.513496990016572E-1
 1.218000000000000E+10   4.821247730877914E-1    8.013934749280088E-1
 1.219000000000000E+10   5.659388153466973E-1    7.409808911388852E-1
 1.220000000000000E+10   6.422314016156377E-1    6.712309339470734E-1
 1.221000000000000E+10   7.103374718233908E-1    5.934706010707810E-1
 1.222000000000000E+10   7.696223483496586E-1    5.091806398113621E-1
 1.223000000000000E+10   8.198830652165047E-1    4.203081028403750E-1
 1.224000000000000E+10   8.603882216581066E-1    3.282318970282115E-1
 1.225000000000000E+10   8.907383766497574E-1    2.349416468506746E-1
 1.226000000000000E+10   9.106979708356016E-1    1.418195305150192E-1
 1.227000000000000E+10   9.205844109438046E-1    4.918559836775445E-2
 1.228000000000000E+10   9.201452841473103E-1   -4.216609889498846E-2
 1.229000000000000E+10   9.097364671086996E-1   -1.319244312970987E-1
 1.230000000000000E+10   8.900911910200062E-1   -2.200040281649748E-1
 1.231000000000000E+10   8.615595765793341E-1   -3.058002051131984E-1
 1.232000000000000E+10   8.250866023556351E-1   -3.883613708873124E-1
 1.233000000000000E+10   7.815205203293868E-1   -4.671462605222370E-1
 1.234000000000000E+10   7.321579027696677E-1   -5.407862010606092E-1
 1.235000000000000E+10   6.778026266187310E-1   -6.087287248023419E-1
 1.236000000000000E+10   6.191570412930344E-1   -6.696753379282098E-1
 1.237000000000000E+10   5.573174165046750E-1   -7.236467454964658E-1
 1.238000000000000E+10   4.917416011514875E-1   -7.698807769310038E-1
 1.239000000000000E+10   4.231003846122218E-1   -8.091689853092935E-1
 1.240000000000000E+10   3.514166729376917E-1   -8.411575540618182E-1
 1.241000000000000E+10   2.766498173074684E-1   -8.665203186649859E-1
 1.242000000000000E+10   1.992792976708539E-1   -8.857408938403932E-1
 1.243000000000000E+10   1.202780069013608E-1   -8.990479196546344E-1
 1.244000000000000E+10   4.082610154908017E-2   -9.060961992670286E-1
 1.245000000000000E+10  -3.812120455287610E-2   -9.072804884082687E-1
 1.246000000000000E+10  -1.157458935194118E-1   -9.026849260748311E-1
 1.247000000000000E+10  -1.909225289847895E-1   -8.916972983602213E-1
 1.248000000000000E+10  -2.633518766707410E-1   -8.746990219869210E-1
 1.249000000000000E+10  -3.330990958175488E-1   -8.513812403574458E-1
 1.250000000000000E+10  -4.000819860559734E-1   -8.218728151162226E-1
