#  HZ   S   RI   R     50.00 
! Rohde & Schwarz Vector Network Analyzer 
! Rohde-Schwarz,ZNA43-4Port,1332450044101932,2.92
! Created: UTC 6/1/2026, 11:42:25 AM
! freq[Hz]                re:S11                  im:S11
 8.000000000000000E9     2.231245341790984E-1   -9.164896092042893E-1
 8.010000000000000E9     4.231622864732987E-3   -9.404266957532276E-1
 8.020000000000000E9    -2.164887101509132E-1   -9.136490590307906E-1
 8.030000000000000E9    -4.239284840395323E-1   -8.381237247003177E-1
 8.040000000000000E9    -6.049883829217994E-1   -7.210870557779916E-1
 8.050000000000000E9    -7.506557711388112E-1   -5.726478702197630E-1
 8.060000000000000E9    -8.563233356985449E-1   -4.037541384346662E-1
 8.070000000000000E9    -9.215818410520099E-1   -2.256165086244581E-1
 8.080000000000000E9    -9.488254083220391E-1   -4.771433998699873E-2
 8.090000000000000E9    -9.425786452005732E-1    1.233020016767359E-1
 8.100000000000000E9    -9.088112986711508E-1    2.818272918852115E-1
 8.110000000000000E9    -8.536788659476722E-1    4.245526764163591E-1
 8.120000000000000E9    -7.820452819873666E-1    5.495372704598234E-1
 8.130000000000000E9    -6.989201079816190E-1    6.564831342838984E-1
 8.140000000000000E9    -6.081889738960287E-1    7.456319518640474E-1
 8.150000000000000E9    -5.123082922563017E-1    8.180405043877857E-1
 8.160000000000000E9    -4.132961914376158E-1    8.743397279450219E-1
 8.170000000000000E9    -3.123793682663356E-1    9.160967806714728E-1
 8.180000000000000E9    -2.108293595183619E-1    9.444779688871092E-1
 8.190000000000000E9    -1.097450688352078E-1    9.610856106198896E-1
 8.200000000000000E9    -9.974772951665245E-3    9.666640820165667E-1
 8.210000000000000E9     8.709516678898803E-2    9.630243485842095E-1
 8.220000000000000E9     1.809669780824029E-1    9.508553205023648E-1
 8.230000000000000E9     2.705035505521261E-1    9.309761958089185E-1
 8.240000000000000E9     3.556079564171827E-1    9.037608437978926E-1
 8.250000000000000E9     4.355316733534758E-1    8.701965078385606E-1
 8.260000000000000E9     5.105275498608405E-1    8.298354663122427E-1
 8.270000000000000E9     5.803606105493709E-1    7.827280646655789E-1
 8.280000000000000E9     6.454108070822814E-1    7.292988142628181E-1
 8.290000000000000E9     7.057871400143982E-1    6.693939762211071E-1
 8.300000000000000E9     7.608365179994936E-1    6.038917824435192E-1
 8.310000000000000E9     8.104657180064330E-1    5.336475335601100E-1
 8.320000000000000E9     8.543346716811953E-1    4.595782469806187E-1
 8.330000000000000E9     8.920824032896680E-1    3.824778146122417E-1
 8.340000000000000E9     9.232363890126267E-1    3.030868248381390E-1
 8.350000000000000E9     9.471523090437177E-1    2.218878022536647E-1
 8.360000000000000E9     9.636344243137194E-1    1.388708270231740E-1
 8.370000000000000E9     9.721068707139168E-1    5.395499700930714E-2
 8.380000000000000E9     9.722558563819893E-1   -3.241795083694325E-2
 8.390000000000000E9     9.638222517425427E-1   -1.202071361895265E-1
 8.400000000000000E9     9.465937613445151E-1   -2.090507292307535E-1
 8.410000000000000E9     9.209272951070403E-1   -2.981793646370360E-1
 8.420000000000000E9     8.866491277657473E-1   -3.862034266239813E-1
 8.430000000000000E9     8.438060550823172E-1   -4.719866079026561E-1
 8.440000000000000E9     7.928468017536919E-1   -5.542079161805057E-1
 8.450000000000000E9     7.339714523757266E-1   -6.313805283046560E-1
 8.460000000000000E9     6.669498465734361E-1   -7.023087258869475E-1
 8.470000000000000E9     5.916485482668100E-1   -7.665340965206868E-1
 8.480000000000000E9     5.082665049082222E-1   -8.228617209952631E-1
 8.490000000000000E9     4.167363234202421E-1   -8.708502998444994E-1
 8.500000000000000E9     3.175744415885328E-1   -9.096680729025916E-1
 8.510000000000000E9     2.117151787494041E-1   -9.374853742175413E-1
 8.520000000000000E9     1.005875640975155E-1   -9.541048506478503E-1
 8.530000000000000E9    -1.323022312381569E-2   -9.586636850227077E-1
 8.540000000000000E9    -1.278263798887968E-1   -9.506073245218182E-1
 8.550000000000000E9    -2.410560499011200E-1   -9.293863043760323E-1
 8.560000000000000E9    -3.507513124571726E-1   -8.946769547886128E-1
 8.570000000000000E9    -4.552861102304462E-1   -8.465791359844341E-1
 8.580000000000000E9    -5.533792490390290E-1   -7.850982295471992E-1
 8.590000000000000E9    -6.435818136504707E-1   -7.107669671192745E-1
 8.600000000000000E9    -7.247205887814397E-1   -6.243524094098062E-1
 8.610000000000000E9    -7.955990183556156E-1   -5.272937092350848E-1
 8.620000000000000E9    -8.548430632100715E-1   -4.216368400589759E-1
 8.630000000000000E9    -9.012964875655938E-1   -3.095363469863320E-1
 8.640000000000000E9    -9.341425736708270E-1   -1.933268070665821E-1
 8.650000000000000E9    -9.525842285522566E-1   -7.529972599201698E-2
 8.660000000000000E9    -9.562921125879046E-1    4.234760963963689E-2
 8.670000000000000E9    -9.452416034600191E-1    1.580200527905698E-1
 8.680000000000000E9    -9.196718126289124E-1    2.701993576644952E-1
 8.690000000000000E9    -8.802754541203295E-1    3.776992607381741E-1
 8.700000000000000E9    -8.276915857495590E-1    4.794764603513777E-1
 8.710000000000000E9    -7.633259779909405E-1    5.745143885520435E-1
 8.720000000000000E9    -6.884578133800938E-1    6.612575051682617E-1
 8.730000000000000E9    -6.051892273147328E-1    7.386309795366497E-1
 8.740000000000000E9    -5.152375442934543E-1    8.054813214435956E-1
 8.750000000000000E9    -4.200866832429634E-1    8.609357296999367E-1
 8.760000000000000E9    -3.210555498230530E-1    9.043668142318092E-1
 8.770000000000000E9    -2.195285374973116E-1    9.355884641621267E-1
 8.780000000000000E9    -1.157114406040595E-1    9.543376703943492E-1
 8.790000000000000E9    -1.049039022831825E-2    9.606558671046125E-1
 8.800000000000000E9     9.496846776597284E-2    9.548971168620410E-1
 8.810000000000000E9     1.998815296971367E-1    9.371732911611846E-1
 8.820000000000000E9     3.028639163736111E-1    9.082725444773341E-1
 8.830000000000000E9     4.026798591283645E-1    8.687973613737767E-1
 8.840000000000000E9     4.974268892198064E-1    8.190793778949732E-1
 8.850000000000000E9     5.859143035848148E-1    7.599796280789074E-1
 8.860000000000000E9     6.663514428228713E-1    6.919120482367883E-1
 8.870000000000000E9     7.383698127888720E-1    6.155002647930772E-1
 8.880000000000000E9     8.009554658286483E-1    5.313563045211523E-1
 8.890000000000000E9     8.534402701181764E-1    4.393872262728482E-1
 8.900000000000000E9     8.957524080206042E-1    3.404792851451436E-1
 8.910000000000000E9     9.269501093392772E-1    2.356835109372958E-1
 8.920000000000000E9     9.464971639385689E-1    1.258627941462180E-1
 8.930000000000000E9     9.539391721183560E-1    1.255413605489389E-2
 8.940000000000000E9     9.485770422840761E-1   -1.020630304617290E-1
 8.950000000000000E9     9.297969899983830E-1   -2.157768308401730E-1
 8.960000000000000E9     8.974650055645583E-1   -3.268171995637362E-1
 8.970000000000000E9     8.512424287398151E-1   -4.331147343234700E-1
 8.980000000000000E9     7.913346812075031E-1   -5.333686891722261E-1
 8.990000000000000E9     7.182342467572527E-1   -6.261115606761531E-1
 9.000000000000000E9     6.322015308012442E-1   -7.098040597341363E-1
 9.010000000000000E9     5.344127433738436E-1   -7.832787710941979E-1
 9.020000000000000E9     4.263771935937498E-1   -8.450266738853981E-1
 9.030000000000000E9     3.100019227457368E-1   -8.933054939160036E-1
 9.040000000000000E9     1.880301771479297E-1   -9.265606754240471E-1
 9.050000000000000E9     6.282559119649252E-2   -9.440513720308308E-1
 9.060000000000000E9    -6.253569321500613E-2   -9.449653852583751E-1
 9.070000000000000E9    -1.859138688230278E-1   -9.290859579442414E-1
 9.080000000000000E9    -3.049492045270251E-1   -8.968128713827416E-1
 9.090000000000000E9    -4.177849011213239E-1   -8.489418960091578E-1
 9.100000000000000E9    -5.232892281019430E-1   -7.868587821368954E-1
 9.110000000000000E9    -6.197123142483780E-1   -7.116753069654882E-1
 9.120000000000000E9    -7.058017157519043E-1   -6.254192861395856E-1
 9.130000000000000E9    -7.801517225174198E-1   -5.299745743367779E-1
 9.140000000000000E9    -8.416563359432628E-1   -4.276968052785959E-1
 9.150000000000000E9    -8.895373835128682E-1   -3.209482308803296E-1
 9.160000000000000E9    -9.231350250022117E-1   -2.121584572771789E-1
 9.170000000000000E9    -9.428492173534826E-1   -1.034067400151079E-1
 9.180000000000000E9    -9.490810555684456E-1    3.871540868666448E-3
 9.190000000000000E9    -9.430396544396635E-1    1.082541594429083E-1
 9.200000000000000E9    -9.258996924661829E-1    2.089342383200589E-1
 9.210000000000000E9    -8.988609013663122E-1    3.055561197942130E-1
 9.220000000000000E9    -8.626759812499433E-1    3.976429367607507E-1
 9.230000000000000E9    -8.184908989664267E-1    4.838840090567552E-1
 9.240000000000000E9    -7.672025444387243E-1    5.643395361044985E-1
 9.250000000000000E9    -7.095862965942525E-1    6.379958698997310E-1
 9.260000000000000E9    -6.470308405375920E-1    7.037866298014753E-1
 9.270000000000000E9    -5.803792677165778E-1    7.615365567302586E-1
 9.280000000000000E9    -5.104845868809373E-1    8.111128786542143E-1
 9.290000000000000E9    -4.383382450562776E-1    8.527612488773875E-1
 9.300000000000000E9    -3.644869908601188E-1    8.868755300395595E-1
 9.310000000000000E9    -2.893842778998430E-1    9.142436859734756E-1
 9.320000000000000E9    -2.135356919665017E-1    9.350976077695150E-1
 9.330000000000000E9    -1.372187275598750E-1    9.500075338126396E-1
 9.340000000000000E9    -6.081825130501944E-2    9.591427341580289E-1
 9.350000000000000E9     1.516917895750084E-2    9.625802183533457E-1
 9.360000000000000E9     9.036276170394024E-2    9.601513079459314E-1
 9.370000000000000E9     1.639577416168613E-1    9.519822788959437E-1
 9.380000000000000E9     2.354614782624843E-1    9.380835894935343E-1
 9.390000000000000E9     3.043633313750223E-1    9.186588901757186E-1
 9.400000000000000E9     3.704751412280295E-1    8.943609618433896E-1
 9.410000000000000E9     4.337979842100468E-1    8.653878357375243E-1
 9.420000000000000E9     4.942412953811667E-1    8.323883603317692E-1
 9.430000000000000E9     5.521869182885888E-1    7.955440121386780E-1
 9.440000000000000E9     6.075662542616220E-1    7.548453238124023E-1
 9.450000000000000E9     6.601872489755415E-1    7.103303231313898E-1
 9.460000000000000E9     7.098799066927921E-1    6.619391528568084E-1
 9.470000000000000E9     7.565088413240625E-1    6.096993556295485E-1
 9.480000000000000E9     7.991381303250665E-1    5.538038770423892E-1
 9.490000000000000E9     8.375958118133379E-1    4.944043976792291E-1
 9.500000000000000E9     8.715806781999009E-1    4.320700555609263E-1
 9.510000000000000E9     9.006759887621720E-1    3.668396797105208E-1
 9.520000000000000E9     9.249914261055494E-1    2.991071108450778E-1
 9.530000000000000E9     9.446033500119327E-1    2.294318458852964E-1
 9.540000000000000E9     9.594784516366659E-1    1.579660627045246E-1
 9.550000000000000E9     9.691986129218914E-1    8.456499299000229E-2
 9.560000000000000E9     9.734907597310537E-1    9.399165042320572E-3
 9.570000000000000E9     9.717764900921312E-1   -6.771355878897485E-2
 9.580000000000000E9     9.633442733166844E-1   -1.463707665559286E-1
 9.590000000000000E9     9.476385914845606E-1   -2.259699145849741E-1
 9.600000000000000E9     9.241506114266062E-1   -3.063235044652202E-1
 9.610000000000000E9     8.926237033598068E-1   -3.864897470674600E-1
 9.620000000000000E9     8.527919426218311E-1   -4.655769951460396E-1
 9.630000000000000E9     8.047198987323182E-1   -5.429324580705142E-1
 9.640000000000000E9     7.484614564317235E-1   -6.172923727663443E-1
 9.650000000000000E9     6.837252442379563E-1   -6.882279501675709E-1
 9.660000000000000E9     6.094424880537317E-1   -7.544366538338275E-1
 9.670000000000000E9     5.260067551473020E-1   -8.143664695192234E-1
 9.680000000000000E9     4.326973342552949E-1   -8.662518680788246E-1
 9.690000000000000E9     3.301618694396937E-1   -9.083152344117368E-1
 9.700000000000000E9     2.184602496690348E-1   -9.386263405590580E-1
 9.710000000000000E9     9.925389690827799E-2   -9.554686807088170E-1
 9.720000000000000E9    -2.522123368961597E-2   -9.568950707155300E-1
 9.730000000000000E9    -1.528251672398039E-1   -9.415962659134175E-1
 9.740000000000000E9    -2.808400997860708E-1   -9.087652921129248E-1
 9.750000000000000E9    -4.060879084185250E-1   -8.573488643000272E-1
 9.760000000000000E9    -5.253544493738767E-1   -7.870695197253323E-1
 9.770000000000000E9    -6.350282294692882E-1   -6.983703097441526E-1
 9.780000000000000E9    -7.315332027762691E-1   -5.914584642371359E-1
 9.790000000000000E9    -8.113855392545629E-1   -4.689018167059620E-1
 9.800000000000000E9    -8.712729534478658E-1   -3.337503808240698E-1
 9.810000000000000E9    -9.090633893690392E-1   -1.903170642506431E-1
 9.820000000000000E9    -9.238370364609624E-1   -4.364016195378601E-2
 9.830000000000000E9    -9.164616225859121E-1    1.018551583105734E-1
 9.840000000000000E9    -8.878319178961044E-1    2.417254232788054E-1
 9.850000000000000E9    -8.401334119318800E-1    3.725434195560137E-1
 9.860000000000000E9    -7.753863440741138E-1    4.917553061868154E-1
 9.870000000000000E9    -6.961644386438502E-1    5.974120337753189E-1
 9.880000000000000E9    -6.050984914465968E-1    6.881413386928749E-1
 9.890000000000000E9    -5.050379185983067E-1    7.629881055369341E-1
 9.900000000000000E9    -3.990149257583990E-1    8.219848808635377E-1
 9.910000000000000E9    -2.900466306877541E-1    8.655483227156738E-1
 9.920000000000000E9    -1.809889755180146E-1    8.947037529698492E-1
 9.930000000000000E9    -7.426762411810713E-2    9.105121196446121E-1
 9.940000000000000E9     2.877788102097130E-2    9.146634824371793E-1
 9.950000000000000E9     1.269618298878132E-1    9.080691997770642E-1
 9.960000000000000E9     2.197095317792546E-1    8.917598495774740E-1
 9.970000000000000E9     3.069294041680207E-1    8.666168387414503E-1
 9.980000000000000E9     3.886017144601572E-1    8.336575648050197E-1
 9.990000000000000E9     4.646393283503027E-1    7.935387355916524E-1
 1.000000000000000E+10   5.353313989046640E-1    7.477595652229244E-1
 1.001000000000000E+10   5.996988320097790E-1    6.964663931619994E-1
 1.002000000000000E+10   6.584718084571118E-1    6.416760148167490E-1
 1.003000000000000E+10   7.112117715794071E-1    5.846514861998712E-1
 1.004000000000000E+10   7.578307150263690E-1    5.260906313400707E-1
 1.005000000000000E+10   7.984565417982676E-1    4.667125438532549E-1
 1.006000000000000E+10   8.333222270702922E-1    4.068067922806004E-1
 1.007000000000000E+10   8.622533167712035E-1    3.458727082924727E-1
 1.008000000000000E+10   8.856370156537259E-1    2.840803371330080E-1
 1.009000000000000E+10   9.036511585403907E-1    2.209089243412669E-1
 1.010000000000000E+10   9.164274990936938E-1    1.563840689912117E-1
 1.011000000000000E+10   9.243931788363653E-1    9.046153034403910E-2
 1.012000000000000E+10   9.277194931472084E-1    2.408797035428738E-2
 1.013000000000000E+10   9.270335054648065E-1   -4.226790110834271E-2
 1.014000000000000E+10   9.227058394071190E-1   -1.075095018162558E-1
 1.015000000000000E+10   9.148717566114929E-1   -1.709980897724513E-1
 1.016000000000000E+10   9.034349052607141E-1   -2.325019823843748E-1
 1.017000000000000E+10   8.885663178731161E-1   -2.916734687890386E-1
 1.018000000000000E+10   8.696796626886598E-1   -3.486166363683468E-1
 1.019000000000000E+10   8.465269149509903E-1   -4.036973654913739E-1
 1.020000000000000E+10   8.188364989898127E-1   -4.572051632616300E-1
 1.021000000000000E+10   7.864374888537331E-1   -5.096247367724347E-1
 1.022000000000000E+10   7.492166531361163E-1   -5.611281048807646E-1
 1.023000000000000E+10   7.074796251645552E-1   -6.113046459001794E-1
 1.024000000000000E+10   6.619027541982472E-1   -6.596611336260463E-1
 1.025000000000000E+10   6.131379256688434E-1   -7.057273024077828E-1
 1.026000000000000E+10   5.618778870632680E-1   -7.485775756009246E-1
 1.027000000000000E+10   5.086720486914894E-1   -7.877238934808726E-1
 1.028000000000000E+10   4.534417631938042E-1   -8.226803804426592E-1
 1.029000000000000E+10   3.961363384969107E-1   -8.531051646776275E-1
 1.030000000000000E+10   3.361094424873980E-1   -8.789673879493051E-1
 1.031000000000000E+10   2.728000757125721E-1   -9.000641205091461E-1
 1.032000000000000E+10   2.057809381376853E-1   -9.163700070847299E-1
 1.033000000000000E+10   1.351777507539678E-1   -9.275423788419137E-1
 1.034000000000000E+10   6.147007876431598E-2   -9.337551141152972E-1
 1.035000000000000E+10  -1.488355808513453E-2   -9.346315007677832E-1
 1.036000000000000E+10  -9.285886691907794E-2   -9.298135761945900E-1
 1.037000000000000E+10  -1.712524186399558E-1   -9.191176172271228E-1
 1.038000000000000E+10  -2.490856121561930E-1   -9.019719183300369E-1
 1.039000000000000E+10  -3.254484737229751E-1   -8.779117227386101E-1
 1.040000000000000E+10  -3.999896055150206E-1   -8.464353974948018E-1
 1.041000000000000E+10  -4.725778190697150E-1   -8.071757560119662E-1
 1.042000000000000E+10  -5.427197715996858E-1   -7.595513593085332E-1
 1.043000000000000E+10  -6.104646599713743E-1   -7.030923971022736E-1
 1.044000000000000E+10  -6.750512995900088E-1   -6.378888713659171E-1
 1.045000000000000E+10  -7.351986157032646E-1   -5.642206498259014E-1
 1.046000000000000E+10  -7.898519487079471E-1   -4.832142080797349E-1
 1.047000000000000E+10  -8.373497348743291E-1   -3.955986766628384E-1
 1.048000000000000E+10  -8.759728531060847E-1   -3.025122197495286E-1
 1.049000000000000E+10  -9.048880510731308E-1   -2.051684772631186E-1
 1.050000000000000E+10  -9.222809854449614E-1   -1.045844626059930E-1
 1.051000000000000E+10  -9.278850399915342E-1   -1.128806995314800E-3
 1.052000000000000E+10  -9.208084159953788E-1    1.041833551448880E-1
 1.053000000000000E+10  -9.005089333021391E-1    2.108759429781631E-1
 1.054000000000000E+10  -8.664236028699600E-1    3.174422408567297E-1
 1.055000000000000E+10  -8.190298088907226E-1    4.223293739108838E-1
 1.056000000000000E+10  -7.586706134657727E-1    5.226695219936445E-1
 1.057000000000000E+10  -6.868626202506628E-1    6.165388301512039E-1
 1.058000000000000E+10  -6.044614823285365E-1    7.010839909801071E-1
 1.059000000000000E+10  -5.131157101196633E-1    7.740016093898621E-1
 1.060000000000000E+10  -4.144572824264497E-1    8.342609700407612E-1
 1.061000000000000E+10  -3.094903184039917E-1    8.806307697224840E-1
 1.062000000000000E+10  -1.996190157221986E-1    9.128347331559840E-1
 1.063000000000000E+10  -8.596584129170426E-2    9.304428224236748E-1
 1.064000000000000E+10   2.966207427264520E-2    9.339043186605933E-1
 1.065000000000000E+10   1.458313791393553E-1    9.234954715161603E-1
 1.066000000000000E+10   2.599007796166089E-1    8.998233272207573E-1
 1.067000000000000E+10   3.695591675249350E-1    8.637426087249901E-1
 1.068000000000000E+10   4.724252718067294E-1    8.162523617875463E-1
 1.069000000000000E+10   5.664605303721864E-1    7.588379042880286E-1
 1.070000000000000E+10   6.506269504286694E-1    6.926826763321654E-1
 1.071000000000000E+10   7.243437546092930E-1    6.189922517499672E-1
 1.072000000000000E+10   7.875168886313462E-1    5.388080293582315E-1
 1.073000000000000E+10   8.406247436735030E-1    4.526514799408820E-1
 1.074000000000000E+10   8.836975863024371E-1    3.619074505544824E-1
 1.075000000000000E+10   9.171116900910180E-1    2.670442385534957E-1
 1.076000000000000E+10   9.411199351318580E-1    1.699775661202494E-1
 1.077000000000000E+10   9.554800859570118E-1    7.168788015736859E-2
 1.078000000000000E+10   9.605019624372685E-1   -2.524318958459158E-2
 1.079000000000000E+10   9.558713917920293E-1   -1.198882289775556E-1
 1.080000000000000E+10   9.424756623523441E-1   -2.107159365834077E-1
 1.081000000000000E+10   9.204702316585235E-1   -2.973794988940233E-1
 1.082000000000000E+10   8.901996378099826E-1   -3.791899033361278E-1
 1.083000000000000E+10   8.525925413804781E-1   -4.569734956488645E-1
 1.084000000000000E+10   8.075191362344902E-1   -5.304440460277970E-1
 1.085000000000000E+10   7.562593062363309E-1   -5.998888251034803E-1
 1.086000000000000E+10   6.987848084973928E-1   -6.653387327499065E-1
 1.087000000000000E+10   6.360849981642113E-1   -7.260634197851571E-1
 1.088000000000000E+10   5.694299428092769E-1   -7.807869338976046E-1
 1.089000000000000E+10   4.992650541035534E-1   -8.293852106985525E-1
 1.090000000000000E+10   4.264705505643176E-1   -8.705942320783705E-1
 1.091000000000000E+10   3.513836240245238E-1   -9.042531606298807E-1
 1.092000000000000E+10   2.751282006469901E-1   -9.301535668328991E-1
 1.093000000000000E+10   1.976846714463968E-1   -9.486750655167302E-1
 1.094000000000000E+10   1.187136941688536E-1   -9.601096311493565E-1
 1.095000000000000E+10   3.843790338254178E-2   -9.649281229457441E-1
 1.096000000000000E+10  -4.317618692769649E-2   -9.626644078395452E-1
 1.097000000000000E+10  -1.258736538639502E-1   -9.544284180796276E-1
 1.098000000000000E+10  -2.083650550505106E-1   -9.392341589567273E-1
 1.099000000000000E+10  -2.895813635826531E-1   -9.174206760444789E-1
 1.100000000000000E+10  -3.682739273485021E-1   -8.891732869397764E-1
 1.101000000000000E+10  -4.434227299776121E-1   -8.545055613303137E-1
 1.102000000000000E+10  -5.138979379430981E-1   -8.135577746333050E-1
 1.103000000000000E+10  -5.797738692709731E-1   -7.665377008347978E-1
 1.104000000000000E+10  -6.406147152394814E-1   -7.136867362517919E-1
 1.105000000000000E+10  -6.967040446534360E-1   -6.554058556151983E-1
 1.106000000000000E+10  -7.483428258499923E-1   -5.916697578158905E-1
 1.107000000000000E+10  -7.953064425288914E-1   -5.226646630739578E-1
 1.108000000000000E+10  -8.371818091390970E-1   -4.489080390992961E-1
 1.109000000000000E+10  -8.731926295677634E-1   -3.708101199548186E-1
 1.110000000000000E+10  -9.028476876393471E-1   -2.891108622228068E-1
 1.111000000000000E+10  -9.249588000894091E-1   -2.047784273987527E-1
 1.112000000000000E+10  -9.387938269510180E-1   -1.191563363551785E-1
 1.113000000000000E+10  -9.442337351836987E-1   -3.300124574144345E-2
 1.114000000000000E+10  -9.411391300191105E-1    5.299339721326432E-2
 1.115000000000000E+10  -9.298059008417158E-1    1.382430891586076E-1
 1.116000000000000E+10  -9.106955843825020E-1    2.223864566219320E-1
 1.117000000000000E+10  -8.838112725825749E-1    3.051230505646257E-1
 1.118000000000000E+10  -8.495059685991598E-1    3.861361708664302E-1
 1.119000000000000E+10  -8.079905435737730E-1    4.644075648249582E-1
 1.120000000000000E+10  -7.592508015972019E-1    5.389403677604461E-1
 1.121000000000000E+10  -7.036169613097339E-1    6.086628732067636E-1
 1.122000000000000E+10  -6.415906904171217E-1    6.725100140505180E-1
 1.123000000000000E+10  -5.737309979675901E-1    7.295545433214994E-1
 1.124000000000000E+10  -5.010378978529914E-1    7.792457926210756E-1
 1.125000000000000E+10  -4.239802971968015E-1    8.214586968140721E-1
 1.126000000000000E+10  -3.437103441395449E-1    8.558862507578628E-1
 1.127000000000000E+10  -2.605531173645270E-1    8.829501667608112E-1
 1.128000000000000E+10  -1.749990969411794E-1    9.023908186595596E-1
 1.129000000000000E+10  -8.774618694445339E-2    9.144440776293440E-1
 1.130000000000000E+10   1.287131747411630E-4    9.183755111473690E-1
 1.131000000000000E+10   8.778731136702903E-2    9.146018020419086E-1
 1.132000000000000E+10   1.742470873979243E-1    9.022808956802137E-1
 1.133000000000000E+10   2.586462325473271E-1    8.817576684445004E-1
 1.134000000000000E+10   3.398694781950056E-1    8.534063376444624E-1
 1.135000000000000E+10   4.173695048702172E-1    8.178675483991723E-1
 1.136000000000000E+10   4.906886453905843E-1    7.751293028260575E-1
 1.137000000000000E+10   5.595013186419469E-1    7.266482376673243E-1
 1.138000000000000E+10   6.237352896266258E-1    6.729121469249498E-1
 1.139000000000000E+10   6.829889488624743E-1    6.137754376587887E-1
 1.140000000000000E+10   7.369756948006514E-1    5.499838564512901E-1
 1.141000000000000E+10   7.853027657388517E-1    4.818873848046695E-1
 1.142000000000000E+10   8.271060934402993E-1    4.098044450674243E-1
 1.143000000000000E+10   8.616718958636571E-1    3.343844009073469E-1
 1.144000000000000E+10   8.888352814526168E-1    2.562757742895585E-1
 1.145000000000000E+10   9.083465843344772E-1    1.762897830453079E-1
 1.146000000000000E+10   9.207197881505421E-1    9.534645911871759E-2
 1.147000000000000E+10   9.259702350473321E-1    1.387781164784535E-2
 1.148000000000000E+10   9.245992284788248E-1   -6.783539620707556E-2
 1.149000000000000E+10   9.164007742072393E-1   -1.488828106422452E-1
 1.150000000000000E+10   9.017701535837117E-1   -2.292508854252721E-1
 1.151000000000000E+10   8.803934061593119E-1   -3.081367885719284E-1
 1.152000000000000E+10   8.521838667499027E-1   -3.847226273996567E-1
 1.153000000000000E+10   8.172770435601999E-1   -4.584699610392899E-1
 1.154000000000000E+10   7.754150928785004E-1   -5.289588588802527E-1
 1.155000000000000E+10   7.272141434179793E-1   -5.951241831411599E-1
 1.156000000000000E+10   6.728332909606572E-1   -6.566254375353278E-1
 1.157000000000000E+10   6.133320548874739E-1   -7.129879834760128E-1
 1.158000000000000E+10   5.494732121353256E-1   -7.641020405330732E-1
 1.159000000000000E+10   4.815002003067195E-1   -8.094100197128605E-1
 1.160000000000000E+10   4.098414138349633E-1   -8.494211826054270E-1
 1.161000000000000E+10   3.350612940190895E-1   -8.832227965033999E-1
 1.162000000000000E+10   2.568662134569830E-1   -9.106581383499075E-1
 1.163000000000000E+10   1.758706531174546E-1   -9.309668084812744E-1
 1.164000000000000E+10   9.243963274722723E-2   -9.435995773192158E-1
 1.165000000000000E+10   7.299249455060476E-3   -9.485727959124574E-1
 1.166000000000000E+10  -7.859874264552583E-2   -9.451105226046655E-1
 1.167000000000000E+10  -1.644294944235712E-1   -9.338275182700986E-1
 1.168000000000000E+10  -2.490825401354562E-1   -9.149313513904155E-1
 1.169000000000000E+10  -3.323029253833343E-1   -8.885183352931840E-1
 1.170000000000000E+10  -4.130707876012162E-1   -8.551012351957916E-1
 1.171000000000000E+10  -4.905474620535255E-1   -8.142703992251425E-1
 1.172000000000000E+10  -5.640050270018467E-1   -7.664411563888389E-1
 1.173000000000000E+10  -6.331544160836450E-1   -7.113231748448141E-1
 1.174000000000000E+10  -6.973058102483094E-1   -6.488889590609344E-1
 1.175000000000000E+10  -7.553241659779951E-1   -5.793928885070689E-1
 1.176000000000000E+10  -8.072345217773774E-1   -5.031525708312631E-1
 1.177000000000000E+10  -8.520267357816882E-1   -4.207101019667480E-1
 1.178000000000000E+10  -8.891239503301235E-1   -3.332111079408772E-1
 1.179000000000000E+10  -9.178176448466987E-1   -2.418699568569907E-1
 1.180000000000000E+10  -9.378146592781634E-1   -1.477218268476962E-1
 1.181000000000000E+10  -9.485701511520954E-1   -5.203828853284160E-2
 1.182000000000000E+10  -9.498918274200608E-1    4.398352970676227E-2
 1.183000000000000E+10  -9.410562033154918E-1    1.405439541344000E-1
 1.184000000000000E+10  -9.212914264435910E-1    2.356174814270193E-1
 1.185000000000000E+10  -8.909305020608683E-1    3.286464818963682E-1
 1.186000000000000E+10  -8.499962685630010E-1    4.189243356051466E-1
 1.187000000000000E+10  -7.990571598355078E-1    5.051063788624242E-1
 1.188000000000000E+10  -7.391079557979120E-1    5.862009773312863E-1
 1.189000000000000E+10  -6.711492068239596E-1    6.609726426118478E-1
 1.190000000000000E+10  -5.964963399124882E-1    7.284910279627864E-1
 1.191000000000000E+10  -5.157609839374414E-1    7.883991767320687E-1
 1.192000000000000E+10  -4.296696733140367E-1    8.390350496213919E-1
 1.193000000000000E+10  -3.392246977846872E-1    8.796471116410055E-1
 1.194000000000000E+10  -2.450084419580427E-1    9.096819518153056E-1
 1.195000000000000E+10  -1.481403903872877E-1    9.287526836314000E-1
 1.196000000000000E+10  -4.915383642874037E-2    9.366984402397267E-1
 1.197000000000000E+10   5.042292257254073E-2    9.334217985009611E-1
 1.198000000000000E+10   1.495668953005170E-1    9.200205264522980E-1
 1.199000000000000E+10   2.464083673684423E-1    8.967800063836848E-1
 1.200000000000000E+10   3.397306839901342E-1    8.645909164590171E-1
 1.201000000000000E+10   4.279274319140350E-1    8.244976138227658E-1
 1.202000000000000E+10   5.101331777860950E-1    7.769445496803852E-1
 1.203000000000000E+10   5.854669770342330E-1    7.227172936085832E-1
 1.204000000000000E+10   6.534483193990616E-1    6.623270797980952E-1
 1.205000000000000E+10   7.140782905375775E-1    5.959608519012373E-1
 1.206000000000000E+10   7.667344432997311E-1    5.238074035415911E-1
 1.207000000000000E+10   8.118115220398368E-1    4.467645050385971E-1
 1.208000000000000E+10   8.492947233172594E-1    3.655290270517721E-1
 1.209000000000000E+10   8.789335800554942E-1    2.813643656537053E-1
 1.210000000000000E+10   9.010602615798362E-1    1.957062057672393E-1
 1.211000000000000E+10   9.155693730410664E-1    1.098227377657124E-1
 1.212000000000000E+10   9.225904719626922E-1    2.467928263047066E-2
 1.213000000000000E+10   9.220932530654389E-1   -5.861472663121923E-2
 1.214000000000000E+10   9.140074577916781E-1   -1.400933694523304E-1
 1.215000000000000E+10   8.985030505683624E-1   -2.188228735442402E-1
 1.216000000000000E+10   8.755925905302036E-1   -2.952993676847508E-1
 1.217000000000000E+10   8.458002171688738E-1   -3.689990799731303E-1
 1.218000000000000E+10   8.093811141561726E-1   -4.399891778502599E-1
 1.219000000000000E+10   7.674530902067718E-1   -5.078029507703651E-1
 1.220000000000000E+10   7.205141639190809E-1   -5.720693774585802E-1
 1.221000000000000E+10   6.692899928832781E-1   -6.321028784272116E-1
 1.222000000000000E+10   6.147936836570335E-1   -6.875202859627360E-1
 1.223000000000000E+10   5.575395544971578E-1   -7.372816980823660E-1
 1.224000000000000E+10   4.976140709026187E-1   -7.808268825551676E-1
 1.225000000000000E+10   4.352865216648277E-1   -8.185532093190461E-1
 1.226000000000000E+10   3.706418376634223E-1   -8.500970807372705E-1
 1.227000000000000E+10   3.026299573628211E-1   -8.756757475748533E-1
 1.228000000000000E+10   2.322719802657382E-1   -8.953148130327512E-1
 1.229000000000000E+10   1.595500210581829E-1   -9.095006463764647E-1
 1.230000000000000E+10   8.509088688058451E-2   -9.184548889264308E-1
 1.231000000000000E+10   9.590492518824243E-3   -9.223912238494080E-1
 1.232000000000000E+10  -6.552981137335841E-2   -9.214005042539885E-1
 1.233000000000000E+10  -1.395351685220127E-1   -9.151683695495300E-1
 1.234000000000000E+10  -2.112391193799665E-1   -9.039992309500392E-1
 1.235000000000000E+10  -2.807355665985409E-1   -8.874932865311895E-1
 1.236000000000000E+10  -3.472438739192204E-1   -8.653391486834041E-1
 1.237000000000000E+10  -4.113860333476855E-1   -8.377615907127549E-1
 1.238000000000000E+10  -4.729662421174620E-1   -8.039928105239881E-1
 1.239000000000000E+10  -5.327699382571346E-1   -7.647385345889072E-1
 1.240000000000000E+10  -5.903412078256021E-1   -7.199658907399702E-1
 1.241000000000000E+10  -6.455598441145440E-1   -6.701283815363401E-1
 1.242000000000000E+10  -6.981247516757628E-1   -6.158646704469148E-1
 1.243000000000000E+10  -7.473415446595373E-1   -5.579530870986674E-1
 1.244000000000000E+10  -7.919234450929797E-1   -4.972808070175958E-1
 1.245000000000000E+10  -8.313901644200702E-1   -4.338912056607938E-1
 1.246000000000000E+10  -8.653261465192150E-1   -3.679792394546030E-1
 1.247000000000000E+10  -8.929716695276362E-1   -2.999588081951937E-1
 1.248000000000000E+10  -9.145371043224132E-1   -2.294657050052037E-1
 1.249000000000000E+10  -9.298761161807219E-1   -1.559586356763726E-1
 1.250000000000000E+10  -9.389473640845299E-1   -7.983434614290616E-2
