#  HZ   S   RI   R     50.00 
! Rohde & Schwarz Vector Network Analyzer 
! Rohde-Schwarz,ZNA43-4Port,1332450044101932,2.92
! Created: UTC 6/1/2026, 11:43:17 AM
! freq[Hz]                re:S11                  im:S11
 8.000000000000000E9    -7.362266317183623E-1    6.243803870119427E-1
 8.010000000000000E9    -6.557698923954025E-1    7.124276461441130E-1
 8.020000000000000E9    -5.712495083801911E-1    7.854587572552784E-1
 8.030000000000000E9    -4.841315914149122E-1    8.447274391433486E-1
 8.040000000000000E9    -3.949514683505397E-1    8.916510438554934E-1
 8.050000000000000E9    -3.045289237893840E-1    9.272287567492339E-1
 8.060000000000000E9    -2.133134528287243E-1    9.518264775613478E-1
 8.070000000000000E9    -1.220856766453007E-1    9.670614863867520E-1
 8.080000000000000E9    -3.175836817855781E-2    9.737754559674817E-1
 8.090000000000000E9     5.692660313444485E-2    9.724531697796409E-1
 8.100000000000000E9     1.436785089537559E-1    9.640043858322982E-1
 8.110000000000000E9     2.274740483759105E-1    9.491314608388224E-1
 8.120000000000000E9     3.076621859574709E-1    9.277834777752015E-1
 8.130000000000000E9     3.845159232172192E-1    8.999330028407392E-1
 8.140000000000000E9     4.576784625685986E-1    8.658219752274195E-1
 8.150000000000000E9     5.274634785236977E-1    8.251668979137735E-1
 8.160000000000000E9     5.933097590746076E-1    7.781934914961380E-1
 8.170000000000000E9     6.555542428903154E-1    7.249231716369112E-1
 8.180000000000000E9     7.136976427998815E-1    6.659338093496145E-1
 8.190000000000000E9     7.677574985935948E-1    6.019029996135007E-1
 8.200000000000000E9     8.165350751446057E-1    5.332509084624002E-1
 8.210000000000000E9     8.603979539099252E-1    4.607096940596099E-1
 8.220000000000000E9     8.980654288231454E-1    3.843509565519737E-1
 8.230000000000000E9     9.290561146278769E-1    3.046476555724630E-1
 8.240000000000000E9     9.525273292552351E-1    2.212520321774452E-1
 8.250000000000000E9     9.683957437998113E-1    1.346200793456712E-1
 8.260000000000000E9     9.756471846721027E-1    4.445770884138850E-2
 8.270000000000000E9     9.737625157193824E-1   -4.878745006018818E-2
 8.280000000000000E9     9.624639643471298E-1   -1.445145478600768E-1
 8.290000000000000E9     9.410320132689278E-1   -2.419378738826732E-1
 8.300000000000000E9     9.095992868947590E-1   -3.389003936417076E-1
 8.310000000000000E9     8.680992769662050E-1   -4.343078448292793E-1
 8.320000000000000E9     8.161189822590386E-1   -5.264854022559740E-1
 8.330000000000000E9     7.534679301993287E-1   -6.139827809114692E-1
 8.340000000000000E9     6.796537898174290E-1   -6.952301484193497E-1
 8.350000000000000E9     5.944739871469381E-1   -7.686689703624154E-1
 8.360000000000000E9     4.974848482865501E-1   -8.327493059065114E-1
 8.370000000000000E9     3.891086420740638E-1   -8.857111165529977E-1
 8.380000000000000E9     2.707097667512229E-1   -9.259451421003762E-1
 8.390000000000000E9     1.440558766688977E-1   -9.515693918109330E-1
 8.400000000000000E9     1.160774813325064E-2   -9.609116066993100E-1
 8.410000000000000E9    -1.236516613120569E-1   -9.527614277300487E-1
 8.420000000000000E9    -2.580821001231660E-1   -9.259731902257716E-1
 8.430000000000000E9    -3.885619790512963E-1   -8.800335119303712E-1
 8.440000000000000E9    -5.117260849600257E-1   -8.150108903780873E-1
 8.450000000000000E9    -6.248627542574525E-1   -7.312790945929019E-1
 8.460000000000000E9    -7.250761383213548E-1   -6.297631048801753E-1
 8.470000000000000E9    -8.099333341231479E-1   -5.124077702057767E-1
 8.480000000000000E9    -8.770217611519013E-1   -3.817992194260918E-1
 8.490000000000000E9    -9.242336290657083E-1   -2.415766039539100E-1
 8.500000000000000E9    -9.503298760579171E-1   -9.621261191318740E-2
 8.510000000000000E9    -9.550051955571480E-1    4.977908195703722E-2
 8.520000000000000E9    -9.387149706228290E-1    1.920903652814059E-1
 8.530000000000000E9    -9.024836349137352E-1    3.276370091725442E-1
 8.540000000000000E9    -8.475260372752328E-1    4.535900113228131E-1
 8.550000000000000E9    -7.757341034273774E-1    5.678967027523416E-1
 8.560000000000000E9    -6.890079831287944E-1    6.694691778245707E-1
 8.570000000000000E9    -5.894704925970586E-1    7.570647567437889E-1
 8.580000000000000E9    -4.798567548018261E-1    8.298736753061673E-1
 8.590000000000000E9    -3.628236293081166E-1    8.872165439434451E-1
 8.600000000000000E9    -2.413629941606368E-1    9.287894794060858E-1
 8.610000000000000E9    -1.184186657026182E-1    9.542390374796724E-1
 8.620000000000000E9     3.645465083000546E-3    9.639366733818459E-1
 8.630000000000000E9     1.230089247511155E-1    9.583761877854149E-1
 8.640000000000000E9     2.382604811095714E-1    9.375703769232523E-1
 8.650000000000000E9     3.483947727311288E-1    9.023320227127645E-1
 8.660000000000000E9     4.524258010636092E-1    8.539554801904384E-1
 8.670000000000000E9     5.497683700382600E-1    7.929945292988456E-1
 8.680000000000000E9     6.394519178915684E-1    7.207576024510185E-1
 8.690000000000000E9     7.205541464424829E-1    6.388909230024630E-1
 8.700000000000000E9     7.917320588817882E-1    5.488330793378023E-1
 8.710000000000000E9     8.519600397240661E-1    4.519525100689225E-1
 8.720000000000000E9     9.003181937461886E-1    3.504162769643097E-1
 8.730000000000000E9     9.361315559013680E-1    2.448271611065199E-1
 8.740000000000000E9     9.588379311505022E-1    1.364078440706808E-1
 8.750000000000000E9     9.681396123449553E-1    2.582517847185045E-2
 8.760000000000000E9     9.634833039054854E-1   -8.593206181409380E-2
 8.770000000000000E9     9.452251207691952E-1   -1.977929625530545E-1
 8.780000000000000E9     9.131634510031621E-1   -3.082651883180126E-1
 8.790000000000000E9     8.680687811519159E-1   -4.156773047189969E-1
 8.800000000000000E9     8.106758777642993E-1   -5.180200550669909E-1
 8.810000000000000E9     7.417374591418925E-1   -6.132677389637923E-1
 8.820000000000000E9     6.622441311948295E-1   -6.994402682712562E-1
 8.830000000000000E9     5.731364988319376E-1   -7.751635076028118E-1
 8.840000000000000E9     4.757454076404901E-1   -8.388794111164749E-1
 8.850000000000000E9     3.707674488895802E-1   -8.898039139721640E-1
 8.860000000000000E9     2.595734634894750E-1   -9.272577226524329E-1
 8.870000000000000E9     1.433015871770189E-1   -9.506120896201149E-1
 8.880000000000000E9     2.384072467661495E-2   -9.596512305003488E-1
 8.890000000000000E9    -9.637411026546938E-2   -9.543065206790536E-1
 8.900000000000000E9    -2.154820451828986E-1   -9.346389615318128E-1
 8.910000000000000E9    -3.305182417612940E-1   -9.012656833525619E-1
 8.920000000000000E9    -4.393669750842626E-1   -8.549323480154840E-1
 8.930000000000000E9    -5.401362563246012E-1   -7.961677257286319E-1
 8.940000000000000E9    -6.316690063765152E-1   -7.262737702831880E-1
 8.950000000000000E9    -7.127944132156128E-1   -6.465721452420987E-1
 8.960000000000000E9    -7.827454721545291E-1   -5.579591354707280E-1
 8.970000000000000E9    -8.416261051573033E-1   -4.620903985453947E-1
 8.980000000000000E9    -8.889895268111293E-1   -3.605324986278823E-1
 8.990000000000000E9    -9.247177970163646E-1   -2.550823070453115E-1
 9.000000000000000E9    -9.484016411047280E-1   -1.478634852081749E-1
 9.010000000000000E9    -9.607462145121759E-1   -4.082061370235486E-2
 9.020000000000000E9    -9.615804151079274E-1    6.449424734293248E-2
 9.030000000000000E9    -9.511697612447395E-1    1.664956358892086E-1
 9.040000000000000E9    -9.302589619797256E-1    2.639712916543470E-1
 9.050000000000000E9    -8.993955767514706E-1    3.566465787097270E-1
 9.060000000000000E9    -8.594114883884387E-1    4.441210128127124E-1
 9.070000000000000E9    -8.108318698214594E-1    5.260062337502933E-1
 9.080000000000000E9    -7.551045807703973E-1    6.023278140791557E-1
 9.090000000000000E9    -6.926878192481621E-1    6.727267594652306E-1
 9.100000000000000E9    -6.247675473179281E-1    7.368704796047214E-1
 9.110000000000000E9    -5.526257488332339E-1    7.940020870805055E-1
 9.120000000000000E9    -4.771015708096060E-1    8.436213083691516E-1
 9.130000000000000E9    -3.993930223122352E-1    8.851530298083202E-1
 9.140000000000000E9    -3.200808386691312E-1    9.185737423755840E-1
 9.150000000000000E9    -2.399212037414800E-1    9.436847781716070E-1
 9.160000000000000E9    -1.591277042245699E-1    9.608640108511939E-1
 9.170000000000000E9    -7.776525038712778E-2    9.705122923202497E-1
 9.180000000000000E9     3.877574101458805E-3    9.730768386347579E-1
 9.190000000000000E9     8.570249212713926E-2    9.689009599694468E-1
 9.200000000000000E9     1.676443997745652E-1    9.581403378078601E-1
 9.210000000000000E9     2.486789681573530E-1    9.410363455000882E-1
 9.220000000000000E9     3.281252995795463E-1    9.173113640715246E-1
 9.230000000000000E9     4.053947543927106E-1    8.873184338406643E-1
 9.240000000000000E9     4.794368012937210E-1    8.507063708574719E-1
 9.250000000000000E9     5.496730353683397E-1    8.078366480772708E-1
 9.260000000000000E9     6.154271338810052E-1    7.591338040097724E-1
 9.270000000000000E9     6.767728286335867E-1    7.045997352198318E-1
 9.280000000000000E9     7.335596628379237E-1    6.445064453714202E-1
 9.290000000000000E9     7.856748625791756E-1    5.788919247259280E-1
 9.300000000000000E9     8.331283897603450E-1    5.077589724618782E-1
 9.310000000000000E9     8.751476427038226E-1    4.312245384415642E-1
 9.320000000000000E9     9.112534012805661E-1    3.495093197580019E-1
 9.330000000000000E9     9.404539770948835E-1    2.629829544827098E-1
 9.340000000000000E9     9.618036025054463E-1    1.720784408248114E-1
 9.350000000000000E9     9.739061578579385E-1    7.764834601266832E-2
 9.360000000000000E9     9.759810790896051E-1   -1.972546713855093E-2
 9.370000000000000E9     9.677049434498176E-1   -1.187415194205047E-1
 9.380000000000000E9     9.483122028672943E-1   -2.189874866314992E-1
 9.390000000000000E9     9.172562657265283E-1   -3.193622184117270E-1
 9.400000000000000E9     8.740161609773582E-1   -4.191665462605301E-1
 9.410000000000000E9     8.178847886726200E-1   -5.167884697048712E-1
 9.420000000000000E9     7.483681244742273E-1   -6.108737901539756E-1
 9.430000000000000E9     6.644685642909061E-1   -6.991317895221321E-1
 9.440000000000000E9     5.661877408264376E-1   -7.781854500196941E-1
 9.450000000000000E9     4.543057328371080E-1   -8.454226422092105E-1
 9.460000000000000E9     3.301725681793282E-1   -8.974748459105777E-1
 9.470000000000000E9     1.957749286621242E-1   -9.318119139468565E-1
 9.480000000000000E9     5.442204035061755E-2   -9.461755407674105E-1
 9.490000000000000E9    -9.026111449894236E-2   -9.389655844824184E-1
 9.500000000000000E9    -2.350058493630116E-1   -9.094696916271209E-1
 9.510000000000000E9    -3.753750341440004E-1   -8.569485828768292E-1
 9.520000000000000E9    -5.072464062631683E-1   -7.819340842715939E-1
 9.530000000000000E9    -6.261103151939578E-1   -6.858746189725455E-1
 9.540000000000000E9    -7.279707084977383E-1   -5.713169357540403E-1
 9.550000000000000E9    -8.090858742015624E-1   -4.419597010155414E-1
 9.560000000000000E9    -8.673549077710716E-1   -3.026351543929056E-1
 9.570000000000000E9    -9.016627720027237E-1   -1.582046615524194E-1
 9.580000000000000E9    -9.130730769316110E-1   -1.368179184109940E-2
 9.590000000000000E9    -9.028896441234426E-1    1.268367835143770E-1
 9.600000000000000E9    -8.731660047580397E-1    2.597658689456759E-1
 9.610000000000000E9    -8.266741858153803E-1    3.830719881284295E-1
 9.620000000000000E9    -7.657814059996824E-1    4.946639270924010E-1
 9.630000000000000E9    -6.926413870922391E-1    5.932440667397882E-1
 9.640000000000000E9    -6.101424790471102E-1    6.784122066473917E-1
 9.650000000000000E9    -5.202926153057290E-1    7.492539213502141E-1
 9.660000000000000E9    -4.265167290435810E-1    8.063287711471220E-1
 9.670000000000000E9    -3.305781849573878E-1    8.505691293047272E-1
 9.680000000000000E9    -2.346551460884254E-1    8.828420182326904E-1
 9.690000000000000E9    -1.399918750980948E-1    9.041981300893743E-1
 9.700000000000000E9    -4.758942343210835E-2    9.156089189600053E-1
 9.710000000000000E9     4.162252050364235E-2    9.179440147325527E-1
 9.720000000000000E9     1.276965846343352E-1    9.118733170400094E-1
 9.730000000000000E9     2.099999475751612E-1    8.979506373851367E-1
 9.740000000000000E9     2.883282813266044E-1    8.769112556777849E-1
 9.750000000000000E9     3.625939423673877E-1    8.493990345664505E-1
 9.760000000000000E9     4.326269313030456E-1    8.161253835760721E-1
 9.770000000000000E9     4.980621019710214E-1    7.781558219439738E-1
 9.780000000000000E9     5.586880830150359E-1    7.365413826251711E-1
 9.790000000000000E9     6.146686161409575E-1    6.917803882640347E-1
 9.800000000000000E9     6.658551206755438E-1    6.446359260095149E-1
 9.810000000000000E9     7.124597402790722E-1    5.952942900433839E-1
 9.820000000000000E9     7.544758572953580E-1    5.441222196375306E-1
 9.830000000000000E9     7.919933424135773E-1    4.906026507146463E-1
 9.840000000000000E9     8.249778798864906E-1    4.348170040115675E-1
 9.850000000000000E9     8.534532902931867E-1    3.767203155095566E-1
 9.860000000000000E9     8.772513773811179E-1    3.165818022363406E-1
 9.870000000000000E9     8.966700628719247E-1    2.548288494457125E-1
 9.880000000000000E9     9.119328272043948E-1    1.920486435557689E-1
 9.890000000000000E9     9.231887503710159E-1    1.289532075894631E-1
 9.900000000000000E9     9.304850190730221E-1    6.600465310687949E-2
 9.910000000000000E9     9.340343925998149E-1    3.507561164538923E-3
 9.920000000000000E9     9.335930467445737E-1   -5.843980006107674E-2
 9.930000000000000E9     9.291187052589887E-1   -1.199400014816745E-1
 9.940000000000000E9     9.200946635509011E-1   -1.810779943190325E-1
 9.950000000000000E9     9.063610745943607E-1   -2.419618745450762E-1
 9.960000000000000E9     8.875955917634013E-1   -3.027810681296204E-1
 9.970000000000000E9     8.637124519860043E-1   -3.633336681307909E-1
 9.980000000000000E9     8.349921873400752E-1   -4.233811214316807E-1
 9.990000000000000E9     8.017194550982131E-1   -4.822086091225207E-1
 1.000000000000000E+10   7.642915577081726E-1   -5.393059458146281E-1
 1.001000000000000E+10   7.232552225080141E-1   -5.946096150890707E-1
 1.002000000000000E+10   6.782868531103771E-1   -6.470100582471788E-1
 1.003000000000000E+10   6.294606560088020E-1   -6.963289628866697E-1
 1.004000000000000E+10   5.763252780456538E-1   -7.422893199946178E-1
 1.005000000000000E+10   5.182456650859673E-1   -7.846870547991737E-1
 1.006000000000000E+10   4.546330371458333E-1   -8.229522638482882E-1
 1.007000000000000E+10   3.855350203055296E-1   -8.569126883712658E-1
 1.008000000000000E+10   3.103658320253651E-1   -8.856111199540685E-1
 1.009000000000000E+10   2.297470006936800E-1   -9.088314443867259E-1
 1.010000000000000E+10   1.446972465023754E-1   -9.258697594329903E-1
 1.011000000000000E+10   5.591518130407910E-2   -9.357203005801789E-1
 1.012000000000000E+10  -3.509602879619558E-2   -9.383623092765860E-1
 1.013000000000000E+10  -1.277414166443527E-1   -9.322680541403711E-1
 1.014000000000000E+10  -2.213163001219682E-1   -9.165513962135802E-1
 1.015000000000000E+10  -3.150420474601323E-1   -8.903239725933269E-1
 1.016000000000000E+10  -4.086800472800866E-1   -8.522606961776806E-1
 1.017000000000000E+10  -5.013714561354510E-1   -8.010210417138637E-1
 1.018000000000000E+10  -5.914882144924195E-1   -7.358303796122095E-1
 1.019000000000000E+10  -6.773026963918133E-1   -6.566227169259985E-1
 1.020000000000000E+10  -7.563889357015684E-1   -5.634528443632054E-1
 1.021000000000000E+10  -8.257023280123551E-1   -4.577939762543464E-1
 1.022000000000000E+10  -8.821830561084368E-1   -3.414309672246966E-1
 1.023000000000000E+10  -9.237407982732150E-1   -2.170138252639939E-1
 1.024000000000000E+10  -9.481728265610162E-1   -8.661221571134854E-2
 1.025000000000000E+10  -9.534823102879821E-1    4.711285779214919E-2
 1.026000000000000E+10  -9.388726604613804E-1    1.820708985451308E-1
 1.027000000000000E+10  -9.034486052176922E-1    3.156709744972387E-1
 1.028000000000000E+10  -8.469533302270486E-1    4.452262779456373E-1
 1.029000000000000E+10  -7.700750236206907E-1    5.668408856942109E-1
 1.030000000000000E+10  -6.752743384655508E-1    6.772659895157603E-1
 1.031000000000000E+10  -5.654301630185873E-1    7.726815729374039E-1
 1.032000000000000E+10  -4.447838601748060E-1    8.504996496669653E-1
 1.033000000000000E+10  -3.171826952441144E-1    9.089792034187255E-1
 1.034000000000000E+10  -1.864746009462050E-1    9.475548861418767E-1
 1.035000000000000E+10  -5.556430292708357E-2    9.662146487302533E-1
 1.036000000000000E+10   7.302076194183117E-2    9.662999277353767E-1
 1.037000000000000E+10   1.979017830588212E-1    9.487582389527873E-1
 1.038000000000000E+10   3.169983325078789E-1    9.154483623993632E-1
 1.039000000000000E+10   4.290227536068775E-1    8.680351664414485E-1
 1.040000000000000E+10   5.325721736922638E-1    8.090611771702042E-1
 1.041000000000000E+10   6.260896605038087E-1    7.406772343868940E-1
 1.042000000000000E+10   7.085719824414299E-1    6.648359351029378E-1
 1.043000000000000E+10   7.792003187178814E-1    5.839319634820022E-1
 1.044000000000000E+10   8.380159856280832E-1    4.991636851412938E-1
 1.045000000000000E+10   8.851619987986313E-1    4.122262583977820E-1
 1.046000000000000E+10   9.211749222673842E-1    3.228940896043018E-1
 1.047000000000000E+10   9.468394551871261E-1    2.324501574670478E-1
 1.048000000000000E+10   9.634920477640534E-1    1.411955369007036E-1
 1.049000000000000E+10   9.708997684588000E-1    4.942613488055208E-2
 1.050000000000000E+10   9.704903104774741E-1   -4.170504907843690E-2
 1.051000000000000E+10   9.628125265483144E-1   -1.308361828727818E-1
 1.052000000000000E+10   9.479249125128510E-1   -2.170644095114486E-1
 1.053000000000000E+10   9.268957066664890E-1   -2.992190814176239E-1
 1.054000000000000E+10   8.998764021903415E-1   -3.766001905925271E-1
 1.055000000000000E+10   8.670092523988578E-1   -4.489288445262212E-1
 1.056000000000000E+10   8.286464813598404E-1   -5.165703962764686E-1
 1.057000000000000E+10   7.841864237588977E-1   -5.795747768025249E-1
 1.058000000000000E+10   7.343557645062051E-1   -6.382805029753355E-1
 1.059000000000000E+10   6.794489952591053E-1   -6.932722348368774E-1
 1.060000000000000E+10   6.197724640084123E-1   -7.444574812862471E-1
 1.061000000000000E+10   5.560739358398248E-1   -7.917260290556511E-1
 1.062000000000000E+10   4.892693263769011E-1   -8.344165822234636E-1
 1.063000000000000E+10   4.205004926855885E-1   -8.720140671684959E-1
 1.064000000000000E+10   3.502273260221309E-1   -9.040094349972142E-1
 1.065000000000000E+10   2.790289077537835E-1   -9.294626489042140E-1
 1.066000000000000E+10   2.071708975686264E-1   -9.483650141759641E-1
 1.067000000000000E+10   1.346976442284955E-1   -9.605632993482410E-1
 1.068000000000000E+10   6.095681026201118E-2   -9.662808296368236E-1
 1.069000000000000E+10  -1.427956618881333E-2   -9.655497462069067E-1
 1.070000000000000E+10  -9.104699214373362E-2   -9.584898885930093E-1
 1.071000000000000E+10  -1.692877057681402E-1   -9.451052291216374E-1
 1.072000000000000E+10  -2.479046396365893E-1   -9.258129262168570E-1
 1.073000000000000E+10  -3.258500229817598E-1   -9.004343108473423E-1
 1.074000000000000E+10  -4.018210032059922E-1   -8.694033054383372E-1
 1.075000000000000E+10  -4.744499333613650E-1   -8.326194940308270E-1
 1.076000000000000E+10  -5.430085556649984E-1   -7.899075286921081E-1
 1.077000000000000E+10  -6.068363921964346E-1   -7.414137620662035E-1
 1.078000000000000E+10  -6.660161976410716E-1   -6.869751519156369E-1
 1.079000000000000E+10  -7.200826330213548E-1   -6.263891982381278E-1
 1.080000000000000E+10  -7.694103424008928E-1   -5.596427433787914E-1
 1.081000000000000E+10  -8.137537801418181E-1   -4.866430675411983E-1
 1.082000000000000E+10  -8.530875482545961E-1   -4.080332801315049E-1
 1.083000000000000E+10  -8.863208030994768E-1   -3.244561432902688E-1
 1.084000000000000E+10  -9.127896840649751E-1   -2.369527831773381E-1
 1.085000000000000E+10  -9.315918627979688E-1   -1.469699610898456E-1
 1.086000000000000E+10  -9.416798855980085E-1   -5.577276020126300E-2
 1.087000000000000E+10  -9.426169720859872E-1    3.549386153905654E-2
 1.088000000000000E+10  -9.339829865886166E-1    1.263912010912461E-1
 1.089000000000000E+10  -9.155840824923852E-1    2.163206285040467E-1
 1.090000000000000E+10  -8.875543016410830E-1    3.049616653537227E-1
 1.091000000000000E+10  -8.500278970339682E-1    3.918230615017249E-1
 1.092000000000000E+10  -8.030759049620426E-1    4.767725096592493E-1
 1.093000000000000E+10  -7.466746575546079E-1    5.584446769465911E-1
 1.094000000000000E+10  -6.818879797145289E-1    6.354919447457464E-1
 1.095000000000000E+10  -6.090159763899973E-1    7.061100032151266E-1
 1.096000000000000E+10  -5.292396227314898E-1    7.689002097476353E-1
 1.097000000000000E+10  -4.437874003527747E-1    8.220884023369737E-1
 1.098000000000000E+10  -3.536819001129202E-1    8.652145877594134E-1
 1.099000000000000E+10  -2.598755740077012E-1    8.978878113409025E-1
 1.100000000000000E+10  -1.630338393806291E-1    9.197684761798377E-1
 1.101000000000000E+10  -6.375046847820365E-2    9.311086647590560E-1
 1.102000000000000E+10   3.757561593000643E-2    9.319410180679105E-1
 1.103000000000000E+10   1.397506104979650E-1    9.223202187070870E-1
 1.104000000000000E+10   2.413768258748309E-1    9.021508242386103E-1
 1.105000000000000E+10   3.406926207521899E-1    8.714489641826735E-1
 1.106000000000000E+10   4.356937659514517E-1    8.307095657897594E-1
 1.107000000000000E+10   5.246033227252732E-1    7.803029490040484E-1
 1.108000000000000E+10   6.065456668228101E-1    7.211234849447274E-1
 1.109000000000000E+10   6.801155403186309E-1    6.542272753661504E-1
 1.110000000000000E+10   7.451841418385506E-1    5.803750133295086E-1
 1.111000000000000E+10   8.015392439724911E-1    5.006242076292212E-1
 1.112000000000000E+10   8.495097476445160E-1    4.156138670492438E-1
 1.113000000000000E+10   8.889967401164367E-1    3.262280622249843E-1
 1.114000000000000E+10   9.198763717803371E-1    2.329704704520826E-1
 1.115000000000000E+10   9.413852168413097E-1    1.371258409183462E-1
 1.116000000000000E+10   9.532432515815661E-1    3.976334764831464E-2
 1.117000000000000E+10   9.549518429667908E-1   -5.782390728542687E-2
 1.118000000000000E+10   9.464748926998647E-1   -1.537462353257609E-1
 1.119000000000000E+10   9.280128288192819E-1   -2.470843988525205E-1
 1.120000000000000E+10   9.004111574712745E-1   -3.373324313512763E-1
 1.121000000000000E+10   8.638852969512646E-1   -4.238342103751898E-1
 1.122000000000000E+10   8.192670868605501E-1   -5.061348112418607E-1
 1.123000000000000E+10   7.669098112915096E-1   -5.840710397815784E-1
 1.124000000000000E+10   7.071536744890843E-1   -6.572028168594326E-1
 1.125000000000000E+10   6.407134587160185E-1   -7.245306326964794E-1
 1.126000000000000E+10   5.679426394326065E-1   -7.852834121595618E-1
 1.127000000000000E+10   4.895094955113267E-1   -8.385246144533407E-1
 1.128000000000000E+10   4.066206038849502E-1   -8.835644289864097E-1
 1.129000000000000E+10   3.199780863671315E-1   -9.192751189616146E-1
 1.130000000000000E+10   2.302970343559032E-1   -9.461390025172566E-1
 1.131000000000000E+10   1.382822127335600E-1   -9.634640297559693E-1
 1.132000000000000E+10   4.512571759714736E-2   -9.721464501754282E-1
 1.133000000000000E+10  -4.859656850369546E-2   -9.718022122601372E-1
 1.134000000000000E+10  -1.424440612646065E-1   -9.626938245901286E-1
 1.135000000000000E+10  -2.359622965999136E-1   -9.446957808021514E-1
 1.136000000000000E+10  -3.278062032405425E-1   -9.177481582205960E-1
 1.137000000000000E+10  -4.170519359943063E-1   -8.812550396992573E-1
 1.138000000000000E+10  -5.025966109028037E-1   -8.352970208945421E-1
 1.139000000000000E+10  -5.827897022727589E-1   -7.807051911064888E-1
 1.140000000000000E+10  -6.568861299285847E-1   -7.179286231493804E-1
 1.141000000000000E+10  -7.240186729370737E-1   -6.477400357154169E-1
 1.142000000000000E+10  -7.837598460956072E-1   -5.709890048966418E-1
 1.143000000000000E+10  -8.359252026044904E-1   -4.887924033363284E-1
 1.144000000000000E+10  -8.803296941140496E-1   -4.018507506076803E-1
 1.145000000000000E+10  -9.161704785579721E-1   -3.109316552288632E-1
 1.146000000000000E+10  -9.428526558434183E-1   -2.160250679641841E-1
 1.147000000000000E+10  -9.598380687503364E-1   -1.186939571920248E-1
 1.148000000000000E+10  -9.658551675574562E-1   -1.995532691491117E-2
 1.149000000000000E+10  -9.617849541230796E-1    7.921649742956446E-2
 1.150000000000000E+10  -9.463601307696213E-1    1.774753568347588E-1
 1.151000000000000E+10  -9.208066811404860E-1    2.734937350766518E-1
 1.152000000000000E+10  -8.856285632964168E-1    3.661709556778344E-1
 1.153000000000000E+10  -8.413200775291224E-1    4.550512169993276E-1
 1.154000000000000E+10  -7.885695999884875E-1    5.389129464811544E-1
 1.155000000000000E+10  -7.278763182971215E-1    6.170844228328790E-1
 1.156000000000000E+10  -6.598921782505153E-1    6.887316068547752E-1
 1.157000000000000E+10  -5.848939076521849E-1    7.531449888245390E-1
 1.158000000000000E+10  -5.035770133450994E-1    8.093749612317441E-1
 1.159000000000000E+10  -4.165681039471046E-1    8.564026264684672E-1
 1.160000000000000E+10  -3.252000906839470E-1    8.936971669470120E-1
 1.161000000000000E+10  -2.309563345811724E-1    9.209377613610172E-1
 1.162000000000000E+10  -1.349148053551853E-1    9.381886406550024E-1
 1.163000000000000E+10  -3.864336051290932E-2    9.458120142046237E-1
 1.164000000000000E+10   5.674595783620986E-2    9.443085356580442E-1
 1.165000000000000E+10   1.504206149164399E-1    9.337585193982277E-1
 1.166000000000000E+10   2.416616341025582E-1    9.145854757815086E-1
 1.167000000000000E+10   3.297372137557738E-1    8.866931260006149E-1
 1.168000000000000E+10   4.140288628390056E-1    8.500506925044277E-1
 1.169000000000000E+10   4.939411129536871E-1    8.052488772200326E-1
 1.170000000000000E+10   5.686391986696474E-1    7.524082894500400E-1
 1.171000000000000E+10   6.377671823420910E-1    6.929721224507601E-1
 1.172000000000000E+10   7.004824547128597E-1    6.275197715790058E-1
 1.173000000000000E+10   7.565574787393337E-1    5.573807057727925E-1
 1.174000000000000E+10   8.054902593522341E-1    4.835303685149227E-1
 1.175000000000000E+10   8.472641745883203E-1    4.067306951341425E-1
 1.176000000000000E+10   8.811801034606707E-1    3.281919935471740E-1
 1.177000000000000E+10   9.076169284581322E-1    2.484289821364796E-1
 1.178000000000000E+10   9.261606031649857E-1    1.676993007852222E-1
 1.179000000000000E+10   9.369537671851684E-1    8.620876532005413E-2
 1.180000000000000E+10   9.401811507859276E-1    4.483478418283120E-3
 1.181000000000000E+10   9.357390855554442E-1   -7.728543508117021E-2
 1.182000000000000E+10   9.238984760723076E-1   -1.585334254764337E-1
 1.183000000000000E+10   9.056555610401239E-1   -2.382996263341021E-1
 1.184000000000000E+10   8.813970479018104E-1   -3.162072093280535E-1
 1.185000000000000E+10   8.514767537574782E-1   -3.912029195957227E-1
 1.186000000000000E+10   8.165541350773665E-1   -4.627439723096519E-1
 1.187000000000000E+10   7.763305470445037E-1   -5.304833007380693E-1
 1.188000000000000E+10   7.309324821135061E-1   -5.938345681732800E-1
 1.189000000000000E+10   6.802684160596839E-1   -6.524491039965016E-1
 1.190000000000000E+10   6.243741259906475E-1   -7.061657315413474E-1
 1.191000000000000E+10   5.635171777254607E-1   -7.545391352352028E-1
 1.192000000000000E+10   4.982748465069551E-1   -7.980137205389266E-1
 1.193000000000000E+10   4.291259855328179E-1   -8.362317361773147E-1
 1.194000000000000E+10   3.571845327390581E-1   -8.692796449975982E-1
 1.195000000000000E+10   2.829777295055492E-1   -8.969042056275700E-1
 1.196000000000000E+10   2.074990254326973E-1   -9.191059535684641E-1
 1.197000000000000E+10   1.309671190764948E-1   -9.354655279240992E-1
 1.198000000000000E+10   5.434718048219390E-2   -9.454020779710588E-1
 1.199000000000000E+10  -2.263649937332414E-2   -9.486865849211004E-1
 1.200000000000000E+10  -9.971297769467255E-2   -9.452058717529254E-1
 1.201000000000000E+10  -1.768999565181470E-1   -9.340266810550101E-1
 1.202000000000000E+10  -2.544600557124367E-1   -9.157596259102139E-1
 1.203000000000000E+10  -3.314621112991725E-1   -8.901079994184716E-1
 1.204000000000000E+10  -4.073801323039837E-1   -8.573340533916339E-1
 1.205000000000000E+10  -4.815542417436869E-1   -8.178289279644030E-1
 1.206000000000000E+10  -5.532893409959291E-1   -7.722037716668694E-1
 1.207000000000000E+10  -6.211901145515974E-1   -7.210846196222067E-1
 1.208000000000000E+10  -6.845852207860479E-1   -6.643972649679831E-1
 1.209000000000000E+10  -7.427666768625775E-1   -6.022987583090161E-1
 1.210000000000000E+10  -7.949786585446080E-1   -5.347196779896155E-1
 1.211000000000000E+10  -8.404307474339878E-1   -4.614982156271856E-1
 1.212000000000000E+10  -8.791468789929069E-1   -3.830247777601978E-1
 1.213000000000000E+10  -9.105322141798695E-1   -2.990591522235621E-1
 1.214000000000000E+10  -9.342040951257089E-1   -2.109581061749132E-1
 1.215000000000000E+10  -9.500277737861307E-1   -1.189238551610522E-1
 1.216000000000000E+10  -9.576539946418150E-1   -2.462713735529706E-2
 1.217000000000000E+10  -9.564775437716848E-1    7.090048344509842E-2
 1.218000000000000E+10  -9.462140924739471E-1    1.663181192199411E-1
 1.219000000000000E+10  -9.259619957953588E-1    2.604687357741479E-1
 1.220000000000000E+10  -8.956586894078506E-1    3.524101217141509E-1
 1.221000000000000E+10  -8.550897076376384E-1    4.411272831801574E-1
 1.222000000000000E+10  -8.035569054969037E-1    5.258492312682900E-1
 1.223000000000000E+10  -7.421973621605824E-1    6.058761471909805E-1
 1.224000000000000E+10  -6.710868129983424E-1    6.810228105241964E-1
 1.225000000000000E+10  -5.908742698328983E-1    7.492791609902264E-1
 1.226000000000000E+10  -5.029829248640080E-1    8.095745365102890E-1
 1.227000000000000E+10  -4.098164445899036E-1    8.605104205958800E-1
 1.228000000000000E+10  -3.120281432914897E-1    9.012978515291600E-1
 1.229000000000000E+10  -2.109918167635933E-1    9.307594408112390E-1
 1.230000000000000E+10  -1.084252718520602E-1    9.482454203809572E-1
 1.231000000000000E+10  -4.501249894111743E-3    9.529697095125844E-1
 1.232000000000000E+10   9.963853019350032E-2    9.450293332967340E-1
 1.233000000000000E+10   2.027420102686482E-1    9.245694809271249E-1
 1.234000000000000E+10   3.044659440851255E-1    8.917805592961221E-1
 1.235000000000000E+10   4.028434559049242E-1    8.471667158000623E-1
 1.236000000000000E+10   4.965575629352251E-1    7.923085116179021E-1
 1.237000000000000E+10   5.833431524997038E-1    7.278722996476764E-1
 1.238000000000000E+10   6.619572884671985E-1    6.558803053569968E-1
 1.239000000000000E+10   7.305753010366518E-1    5.769972098992565E-1
 1.240000000000000E+10   7.886181629051469E-1    4.930856702959017E-1
 1.241000000000000E+10   8.353287190890244E-1    4.047153943742458E-1
 1.242000000000000E+10   8.708279153164230E-1    3.126255329669325E-1
 1.243000000000000E+10   8.950670653439415E-1    2.177569459108843E-1
 1.244000000000000E+10   9.086929801015290E-1    1.205707505237647E-1
 1.245000000000000E+10   9.120689767352227E-1    2.267630573659639E-2
 1.246000000000000E+10   9.056632511477348E-1   -7.480000626798010E-2
 1.247000000000000E+10   8.901558150093617E-1   -1.701595304276817E-1
 1.248000000000000E+10   8.661390475541290E-1   -2.618533894062407E-1
 1.249000000000000E+10   8.341536890590664E-1   -3.486522842550921E-1
 1.250000000000000E+10   7.949071387294264E-1   -4.293006762983766E-1
